% drifting stream generated from medium.arff
% seed: 5
% length: 2000
% sudden drift begins at instance 1000 (0-based; the 1001st @data row)
% pre-drift class weights: 6=0.4488, 5=0.2975, 7=0.1797, 8=0.0357, 4=0.0333, 3=0.0041, 9=0.0010
% post-drift class weights: 6=0.1849, 5=0.2790, 7=0.4619, 8=0.0357, 4=0.0333, 3=0.0041, 9=0.0010
% post-drift label map: 6->5, 5->6, 7->8, 8->7, 4->4, 3->3, 9->9
% pre-drift realized counts: {'3': 6, '4': 33, '5': 289, '6': 448, '7': 183, '8': 40, '9': 1}
% post-drift realized counts: {'3': 1, '4': 27, '5': 171, '6': 298, '7': 35, '8': 466, '9': 2}
% jitter is gaussian noise at --jitter * feature std; class values match the source file
@relation medium_stream
@attribute A1 NUMERIC
@attribute A2 NUMERIC
@attribute A3 NUMERIC
@attribute A4 NUMERIC
@attribute A5 NUMERIC
@attribute A6 NUMERIC
@attribute A7 NUMERIC
@attribute A8 NUMERIC
@attribute A9 NUMERIC
@attribute A10 NUMERIC
@attribute A11 NUMERIC
@attribute class NUMERIC
@data
9.42824,0.40844,0.319132,5.92791,0.0282026,20.1725,169.882,0.994715,3.08301,0.428369,10.5546,5
8.20613,0.310034,0.439807,6.86527,0.0473778,18.5683,85.4386,0.996284,3.22709,0.635433,10.5549,5
7.00741,0.333397,0.332203,1.14328,0.0523185,40.1041,134.899,0.990545,3.13503,0.29303,11.1416,6
7.19758,0.19517,0.490846,15.7325,0.0576644,49.2286,137.411,0.999627,3.41476,0.359446,9.07806,7
6.46351,0.20053,0.490616,18.1466,0.0567801,50.81,224.5,0.999446,2.94081,0.639098,8.8138,6
5.96084,0.26244,0.282772,4.35083,0.0610962,31.4686,202.086,0.99647,3.68238,0.697981,9.9898,5
5.95455,0.285257,0.343506,3.1194,0.0425679,50.4684,195.63,0.991274,3.29704,0.511813,11.5251,6
5.78092,0.458313,0.45524,1.50741,0.0385378,30.8681,167.202,0.992963,3.13122,0.476752,8.8406,5
6.3045,0.356744,0.303078,5.45185,0.034674,8.1359,97.4736,0.992681,3.2556,0.41044,11.0681,7
7.35005,0.194145,0.266214,14.0196,0.0579211,45.8285,155.801,0.998283,2.95322,0.407473,8.77428,8
6.18617,0.245915,0.378974,8.18252,0.0454355,53.7597,209.145,0.995554,3.17762,0.472123,9.12615,5
6.48037,0.252024,0.438083,7.51331,0.0494677,52.204,184.768,0.99563,3.18907,0.524175,9.17268,5
6.38893,0.384122,0.186782,2.87861,0.0676325,18.4503,102.438,0.993264,3.031,0.374989,8.99247,6
6.33445,0.361374,0.194654,1.74376,0.0465942,48.3723,189.261,0.993066,3.15728,0.504108,9.44431,5
6.27425,0.290979,0.281819,4.52802,0.0265408,21.4491,107.787,0.989106,2.97095,0.643953,13.1683,8
7.58016,0.1938,0.292673,13.9359,0.0546785,53.4946,212.717,0.998798,3.14396,0.461679,8.99187,8
7.6174,0.268805,0.366444,7.46158,0.0381985,46.4308,161.337,0.99392,3.02395,0.332687,10.9876,5
7.58609,0.385138,0.280026,4.15355,0.0301042,8.20291,114.653,0.990572,3.00146,0.408074,12.582,6
7.0335,0.34873,0.308104,1.90709,0.0678154,15.5914,159.684,0.99436,3.1841,0.47467,9.35942,5
6.80404,0.223671,0.300306,12.3212,0.0350031,36.924,234.82,0.997734,3.35823,0.524297,9.76229,6
7.85182,0.280238,0.408458,4.65895,0.0583939,30.6045,150.099,0.996463,3.2682,0.514119,9.84713,6
8.01253,0.300687,0.36104,10.6543,0.0316518,8.00687,70.6067,0.993638,3.0557,0.402742,12.2097,6
6.40631,0.276292,0.219611,12.9461,0.0399077,50.9503,148.124,0.995243,3.2237,0.423868,10.6987,6
7.77886,0.208404,0.499298,0.889211,0.0348409,20.7779,99.3281,0.989886,3.03743,0.280289,12.1034,7
6.57642,0.504723,0.249006,1.68773,0.0482047,38.1159,174.035,0.992013,3.27416,0.565168,10.6516,5
6.97807,0.214537,0.215984,5.11111,0.0470719,39.4771,168.075,0.994312,3.33462,0.485149,10.4091,6
6.95167,0.22894,0.343256,7.04275,0.0316923,45.4148,115.903,0.992503,2.81663,0.545246,10.9675,6
6.13874,0.229519,0.268173,9.89754,0.0543566,72.7223,129.844,0.995321,3.15605,0.396633,10.3327,6
7.77856,0.401538,0.258702,9.44736,0.0598294,32.522,178.658,0.995523,3.02893,0.425721,10.9239,6
6.58433,0.167695,0.343553,2.37585,0.0312709,33.3989,77.4088,0.991406,3.22941,0.717933,11.2542,6
6.47609,0.297288,0.265608,3.93805,0.0380048,35.9742,98.0359,0.990341,3.19149,0.606747,12.6418,8
6.16022,0.238778,0.299273,1.69699,0.0440176,21.1906,61.6083,0.991626,3.31451,0.545475,10.4473,5
6.12276,0.360953,0.418735,19.2362,0.0700913,67.4164,210.096,1.00114,3.39178,0.527172,9.05926,5
6.77213,0.217139,0.366002,7.07051,0.0369796,26.8634,105.028,0.992,2.99022,0.825252,11.4859,6
7.29738,0.284953,0.291288,4.6377,0.0290913,27.2305,156.868,0.99299,3.07001,0.259831,10.4731,6
5.8165,0.147508,0.286035,0.932422,0.0384842,44.5459,128.853,0.992094,3.23376,0.507389,9.29045,5
5.79287,0.24359,0.278464,1.4073,0.0389325,39.6274,78.9983,0.987023,3.09607,0.284279,13.929,7
7.99289,0.246423,0.131281,17.2662,0.0359885,48.7561,216.289,0.999485,2.95129,0.467595,9.64922,5
9.76627,0.44082,0.398935,2.39905,0.0364197,35.5395,164.629,0.995286,2.96512,0.385195,9.20682,5
7.09927,0.370633,0.301378,6.44738,0.038212,47.1527,136.995,0.990187,3.16457,0.270822,13.5745,6
5.80056,0.27162,0.198297,7.3537,0.0399619,42.8694,144.762,0.994466,3.16959,0.483565,9.83148,5
5.54542,0.311177,0.303768,3.0274,0.0265497,16.5032,101.882,0.990885,3.23557,0.555646,11.1531,6
7.56304,0.187874,0.363124,12.8114,0.0338001,51.621,147.226,0.997348,3.18061,0.792792,10.39,6
6.11673,0.157799,0.341855,5.82118,0.0337176,30.5038,110.403,0.993867,3.31775,0.578926,10.2041,7
7.52499,0.280004,0.671758,8.03548,0.0371302,52.175,166.003,0.996598,2.89599,0.423204,8.90999,6
7.40744,0.238922,0.410686,13.9486,0.0679849,47.6679,198.756,0.997983,2.89185,0.419323,8.99207,6
7.33329,0.237826,0.223035,10.7225,0.044007,25.6972,79.4891,0.995445,2.86132,0.359686,9.66863,6
7.09625,0.186658,0.390626,15.4398,0.0454419,45.8635,159.472,0.999572,3.35044,0.757286,9.14818,6
6.37704,0.244739,0.311108,3.13834,0.0381629,41.236,113.38,0.991473,3.36134,0.661108,11.732,7
7.00022,0.163178,0.285396,15.0256,0.0512938,27.2541,149.496,0.997839,2.96328,0.389353,9.04064,7
7.60676,0.471198,0.272636,10.7428,0.0496328,55.8465,205.638,0.997451,3.23301,0.450187,9.32831,5
7.02434,0.241112,0.342414,1.29025,0.0287032,27.4754,110.604,0.989898,3.07023,0.3952,11.8349,6
7.29259,0.187817,0.243352,1.18294,0.0510896,40.8338,105.724,0.993635,3.52113,0.659426,10.4096,7
5.98172,0.216874,0.295722,8.54876,0.0348119,47.2431,125.076,0.993492,3.17368,0.38538,10.593,5
6.80861,0.243155,0.389377,7.64234,0.0435437,25.1617,159.869,0.995631,3.3302,0.591576,10.3336,6
7.05682,0.396329,0.239325,1.77509,0.0485029,51.2628,191.477,0.991828,2.99661,0.55706,11.3878,6
6.58046,0.26568,0.410037,0.98913,0.0524367,17.233,141.184,0.995219,3.42875,0.460021,9.93325,6
7.28784,0.300999,0.305026,5.16082,0.0545146,45.4111,162.226,0.993929,3.11046,0.450326,10.3219,6
6.44921,0.234381,0.254481,8.3332,0.05167,46.6685,181.443,0.995495,3.10448,0.490856,9.50588,5
6.40969,0.275905,0.192171,5.75681,0.0431512,66.8366,181.741,0.994428,3.30879,0.347798,10.1971,6
7.04097,0.370889,0.291226,13.9884,0.0416708,29.1853,138.123,0.994668,3.02184,0.962098,12.1492,6
5.94762,0.239198,0.328902,2.13269,0.0353713,41.8942,105.554,0.989206,3.17616,0.502118,12.3173,6
7.88832,0.332774,0.273913,0.723126,0.0440792,22.3642,105.221,0.99314,3.21115,0.540565,10.5319,6
6.59469,0.311806,0.246615,8.38496,0.0368084,20.872,122.249,0.993747,3.06578,0.374322,10.8798,6
6.95772,0.288509,0.30355,6.86267,0.0404475,47.2168,163.738,0.994795,3.29741,0.57235,10.6333,7
6.8211,0.198029,0.352564,0.745126,0.0216176,22.6985,97.7038,0.991269,3.22554,0.567134,11.1095,6
6.59507,0.420702,0.329964,3.08075,0.0330239,15.6886,86.4099,0.990034,3.28806,0.509008,13.3744,6
6.60313,0.218339,0.229902,16.956,0.0481837,35.9538,119.137,0.999236,3.07374,0.458984,8.78743,6
6.13007,0.261326,0.308218,6.42352,0.0499999,47.1462,161.967,0.992928,3.2184,0.603508,11.0124,6
6.28545,0.236473,0.292279,13.4954,0.0351691,52.7815,133.056,0.99575,3.1773,0.384998,10.627,6
6.90269,0.180919,0.367273,0.731169,0.0355192,39.732,117.403,0.993735,3.27175,0.949452,9.52594,7
6.64097,0.638233,0.283631,4.25335,0.0342379,19.847,76.3021,0.990345,3.11349,0.616084,12.9309,6
6.30449,0.213568,0.380448,9.42831,0.0438876,36.064,126.868,0.99318,2.95827,0.301054,11.1055,7
7.3037,0.169221,0.35566,8.04018,0.0298492,44.0941,114.253,0.992913,3.1313,0.40426,12.3765,6
6.83614,0.317793,0.360608,3.32474,0.025466,18.202,88.7958,0.99019,3.14875,0.541453,12.7594,6
6.02151,0.22832,0.148124,9.234,0.0478305,100.391,208.558,0.995658,3.05074,0.307357,9.10191,5
7.11684,0.240794,0.408156,17.9183,0.0468362,38.8653,144.401,1.00006,3.31967,0.385558,8.74116,5
6.64802,0.257996,0.282264,6.19888,0.0232869,26.5894,71.5573,0.992605,3.27348,0.528204,11.0249,6
6.82211,0.31474,0.43119,1.54775,0.0495369,3.77484,64.4729,0.993258,3.26593,0.467386,10.7283,5
6.79356,0.18771,0.282534,8.39738,0.0482564,50.4286,240.963,0.995417,3.21692,0.52915,10.562,6
6.1993,0.240263,0.270376,16.495,0.040998,47.4501,129.831,0.996997,3.22847,0.393771,10.5073,6
6.91742,0.19655,0.495,9.74757,0.0358754,78.6209,171.457,0.996485,3.15781,0.554813,10.1777,6
7.49449,0.215843,0.277344,1.37753,0.0444865,34.5733,103.743,0.991357,3.15324,0.44592,11.3371,6
6.32049,0.22935,0.508489,9.99763,0.0408879,62.0843,134.434,0.995384,2.86301,0.45257,9.01246,6
6.70873,0.33378,0.302565,15.8021,0.0540498,50.6119,198.755,0.997959,3.18762,0.494393,9.18169,5
7.53307,0.238991,0.403616,4.72032,0.0313277,9.80352,93.4695,0.992123,3.09477,0.390198,11.1142,6
5.66298,0.443789,0.41745,1.31543,0.0519497,61.3812,197.768,0.993299,3.01747,0.398313,8.9488,5
7.44855,0.139114,0.347582,1.56411,0.0548047,50.2589,155.471,0.994628,3.28636,0.791477,9.49726,6
4.83252,0.291863,0.235352,0.814509,0.043519,39.0118,180.895,0.989037,3.27983,0.343436,11.853,6
7.06632,0.132256,0.383041,1.66117,0.0443393,16.3535,118.423,0.992561,3.3234,0.905244,11.7358,6
6.43391,0.466673,0.226294,14.9052,0.0469879,51.798,186.21,0.998352,3.39923,0.60674,10.4574,5
7.14834,0.284323,0.344804,3.22526,0.0270954,35.6559,91.6236,0.990097,2.95906,0.323254,12.1771,5
6.70301,0.171873,0.204511,4.704,0.0451821,58.5387,159.826,0.994467,3.32593,0.652703,10.4466,6
5.95783,0.433237,0.322897,1.3598,0.0500743,13.504,117.029,0.991378,3.44575,0.446805,11.5204,5
5.99789,0.326944,0.273434,1.06518,0.184444,11.2584,189.769,0.992493,3.12711,0.613782,9.43653,5
7.38625,0.189753,0.292843,1.201,0.0573718,32.9243,132.956,0.992793,3.11274,0.491836,9.63199,6
5.79698,0.29993,0.11397,1.72733,0.0362629,57.5124,165.093,0.992667,3.38684,0.586187,10.4941,6
5.91611,0.170768,0.281594,3.27777,0.0287017,31.6484,118.948,0.989108,3.40897,0.342888,13.5767,7
7.39067,0.366814,0.337639,5.58731,0.0615149,12.7532,94.7181,0.996511,3.48585,0.700679,10.6179,6
6.34572,0.318686,0.166073,17.5227,0.0606871,50.835,190.266,0.998914,3.13354,0.476061,8.68556,6
6.46477,0.441837,0.0716767,0.846521,0.0291403,8.949,133.488,0.990341,2.9654,0.281292,10.7782,5
6.92831,0.282215,0.406982,8.32998,0.0351211,15.9605,96.6247,0.994346,3.1732,0.329841,10.207,5
6.86587,0.297342,0.267942,11.3291,0.0291079,20.3995,96.347,0.992832,2.95279,0.380419,11.7983,6
5.99499,0.199395,0.387844,1.47101,0.0333595,37.8606,103.579,0.9885,3.116,0.521031,12.6985,6
6.40658,0.268234,0.315853,4.45889,0.239254,60.0161,176.853,0.994935,3.11446,0.48276,9.46632,5
6.74254,0.329498,0.364363,3.4469,0.0207987,18.8505,86.1856,0.989893,3.14126,0.531016,12.7512,6
6.59966,0.104138,0.247585,14.7453,0.0537143,43.0101,96.8529,0.996824,3.19619,0.351738,9.75457,6
6.26849,0.388539,0.242227,6.68317,0.0708327,8.77169,117.012,0.994427,3.14749,0.356956,10.1651,4
7.19295,0.259324,0.274417,14.3964,0.0528898,54.9291,202.892,0.99853,3.11424,0.373428,8.94624,7
6.02489,0.189381,0.26151,1.45983,0.0378875,30.3781,103.624,0.990063,3.32025,0.407483,12.4749,6
5.91306,0.318943,0.197405,14.6743,0.0416563,38.2139,117.292,0.996875,3.16357,0.434357,10.2745,5
6.85274,0.24451,0.29142,2.63476,0.0382507,29.6543,75.9153,0.991016,3.01428,0.358122,11.8369,7
5.63583,0.266324,0.273195,4.09747,0.200972,72.1296,187.846,0.994232,3.2736,0.385209,9.45676,6
6.58224,0.203582,0.493199,17.9502,0.0422531,42.5315,158.868,0.99964,3.27526,0.382475,8.70034,6
8.40646,0.395759,0.695596,13.396,0.0433336,30.6899,199.399,0.99805,3.05865,0.646898,9.74205,5
6.8085,0.201007,0.276566,1.32668,0.0341129,19.8758,73.7194,0.990157,3.14527,0.372524,11.7118,4
6.87035,0.255404,0.340946,14.9095,0.0604217,42.5892,163.21,0.997087,3.23835,0.513487,10.5523,3
5.90237,0.377853,0.30341,1.52259,0.0303842,35.2489,98.0807,0.990001,3.36498,0.559816,11.9952,7
5.03293,0.437976,0.0404647,18.9496,0.0406856,38.0545,133.139,0.998504,3.36302,0.569273,10.1952,6
5.82921,0.179195,0.373305,1.53556,0.0360811,19.0123,74.2219,0.988495,3.09515,0.492338,12.7873,7
7.61255,0.12769,0.340224,9.14585,0.0608129,39.2743,127.503,0.996429,3.21143,0.396041,9.58376,5
5.43032,0.23382,0.181622,2.64482,0.0510118,21.4494,146.982,0.991787,3.23801,0.457649,10.3746,5
6.30939,0.300211,0.22622,15.5785,0.0602197,25.5249,141.923,0.998417,3.07155,0.493119,9.00919,5
7.54806,0.209649,0.601461,2.08121,0.0466431,45.4898,167.735,0.993722,3.05336,0.537292,10.0189,7
7.07164,0.316822,0.342047,1.81806,0.0399986,24.3496,127.15,0.99178,3.18719,0.629461,12.2204,6
6.29434,0.378848,0.168814,8.42657,0.0799483,49.3716,214.818,0.99789,3.47772,0.653597,9.33977,4
6.23814,0.381182,0.246941,4.64925,0.0373543,43.7816,136.769,0.992151,3.22252,0.433249,11.2226,7
6.67879,0.485063,0.317573,0.683784,0.0196314,21.3985,124.007,0.98896,3.14914,0.531409,12.6119,7
7.11514,0.427813,0.601665,11.8296,0.0441296,51.9652,156.302,0.997135,3.11731,0.452374,8.82722,5
6.74722,0.241292,0.343715,6.7065,0.0479138,44.0281,170.065,0.994415,3.29446,0.538963,10.4908,7
6.80171,0.273871,0.297019,14.171,0.0296848,34.1453,132.544,0.995248,3.35585,0.509947,12.0049,7
8.46251,0.310545,0.316224,1.00727,0.0221431,51.4059,151.456,0.99039,2.93619,0.3212,11.6358,5
7.8428,0.263929,0.489859,3.51222,0.0267771,27.8152,84.8891,0.99164,3.03514,0.322863,11.3867,7
5.27705,0.34142,0.369402,6.41075,0.0302977,42.6589,133.032,0.990997,3.24916,0.409167,12.388,6
6.97859,0.44898,0.338399,19.4498,0.0381634,13.6561,68.1417,0.99751,3.05208,0.385665,11.0703,6
6.90222,0.38497,0.384267,13.8017,0.113529,14.8676,95.7884,0.997808,3.01302,0.477136,9.2257,5
5.96003,0.279357,0.250889,1.84955,0.0428073,8.59709,111.177,0.992914,3.07713,0.553552,8.97209,5
5.84528,0.278111,0.300244,4.35852,0.0271716,35.3778,104.168,0.989619,3.25775,0.590264,12.6572,6
7.10556,0.356047,0.242375,15.2949,0.0540114,47.0407,198.352,0.998644,3.12308,0.503556,8.88706,5
8.18802,0.377174,0.491229,13.5184,0.0424096,57.6778,166.161,0.998334,3.10265,0.535025,9.46479,5
8.5306,0.171814,0.482607,8.33988,0.0478703,22.7823,106.875,0.994812,2.88256,0.343585,10.4409,4
5.69587,0.23183,0.246345,8.11937,0.0435634,16.6747,107.033,0.995109,3.44362,0.615079,10.265,6
5.79021,0.187817,0.245814,1.29732,0.0428874,38.6703,126.669,0.99371,3.77063,0.6033,10.5418,5
7.37003,0.205016,0.401025,2.37051,0.047854,23.4188,87.3812,0.99035,2.93454,0.348566,12.0499,6
6.6768,0.301889,0.322022,14.6453,0.0355356,7.51902,78.5915,0.994333,3.14142,0.339244,12.5254,5
7.24576,0.25213,0.489188,4.64873,0.0272396,32.2083,102.912,0.993726,3.23274,0.548139,10.767,6
6.191,0.206621,0.273846,1.68893,0.0366279,40.4062,148.962,0.993605,3.48085,0.704278,10.5749,7
6.36096,0.399637,0.234682,5.07829,0.0369738,44.2332,130.576,0.991671,3.24174,0.437516,11.2602,6
7.41712,0.201183,0.362707,17.1508,0.0488081,43.499,192.899,0.999729,3.03997,0.421766,9.16086,6
6.05557,0.341684,0.281719,6.30801,0.048492,28.7511,131.59,0.994666,3.47841,0.568438,10.7846,6
5.60363,0.385033,0.246913,5.01521,0.034348,28.2335,76.4394,0.990487,3.29008,0.360105,12.7206,5
6.84558,0.240731,0.233709,3.30294,0.0569677,13.3603,85.7396,0.994058,2.9907,0.473575,9.40371,4
6.57002,0.556285,0.159045,3.48193,0.0447718,28.1529,92.9653,0.994124,3.11572,0.342316,8.98694,6
7.80478,0.208226,0.262159,9.12478,0.0468717,37.6465,126.989,0.996985,3.23846,0.538427,10.2126,6
6.93456,0.39822,0.41556,5.88787,0.0669925,40.9539,175.157,0.995569,3.11883,0.538006,9.42019,5
6.78075,0.371159,0.294432,9.64695,0.0379956,41.1853,153.62,0.99345,3.1156,0.374859,11.4918,6
6.04679,0.296204,0.331553,2.44176,0.043406,30.6933,127.845,0.989721,3.31838,0.418694,12.5596,6
6.30034,0.364477,0.510289,6.75228,0.0490403,35.7097,149.418,0.9946,3.10409,1.0111,10.505,6
7.3213,0.234888,0.349403,15.1045,0.049219,37.8555,173.529,0.998308,3.03058,0.425291,9.02896,6
6.10512,0.209374,0.385709,1.7603,0.038523,37.6192,128.03,0.989812,3.19936,0.433023,12.094,6
6.68605,0.381021,0.29629,2.77897,0.0352143,15.0157,100.931,0.988811,3.04413,0.37467,12.5266,6
4.68139,0.329285,0.155564,0.987911,0.0375829,70.297,167.516,0.992184,3.47735,0.462152,10.5404,5
6.40065,0.237738,0.720987,1.14503,0.172907,21.8278,112.688,0.992985,3.27282,0.392048,9.89574,6
6.26013,0.250932,0.215307,11.9819,0.0524875,63.2605,179.777,0.996408,3.06211,0.579473,9.4034,6
7.28821,0.214855,0.504694,13.739,0.0480883,56.4063,188.811,0.999392,3.22439,0.66244,9.08993,6
6.38127,0.41328,0.013884,6.18772,0.0463331,18.8871,72.3487,0.99383,3.19578,0.423735,9.92904,5
8.04042,0.459969,0.32172,4.07696,0.0338919,40.3419,139.26,0.991031,3.17985,0.442626,12.8,7
7.22202,0.291064,0.403426,7.50217,0.0236048,56.6164,174.333,0.992973,3.03156,0.319454,11.4518,6
6.77294,0.464639,0.275756,26.1171,0.0333791,26.6159,125.941,1.00324,3.05032,0.427988,10.5516,6
6.79921,0.219949,0.30663,6.79068,0.043446,41.4358,181.1,0.994679,3.25637,0.567656,10.6357,6
6.88381,0.188454,0.353735,6.75675,0.0465661,51.2169,124.607,0.993298,3.09724,0.440024,10.6823,7
5.92144,0.335992,0.308343,1.74512,0.0302014,36.7831,138.874,0.98879,3.40673,0.40217,12.8653,7
6.13807,0.170006,0.238879,1.24814,0.0446253,17.5713,75.7464,0.992779,3.65208,0.573597,10.3254,6
5.88058,0.202948,0.289854,12.9718,0.0379139,28.7715,129.943,0.994462,3.30986,0.576646,11.7443,7
6.69766,0.209686,0.247811,6.26486,0.0430553,28.2137,101.433,0.993637,3.12141,0.326145,10.2807,6
7.12141,0.368017,0.400008,11.9828,0.0341317,33.4993,209.188,0.996342,3.10285,0.50754,9.7406,6
9.37594,0.305871,0.487109,1.03911,0.0421674,33.7057,148.075,0.994696,3.11003,0.460721,9.90785,5
7.1997,0.184073,0.280501,11.2903,0.060847,45.4121,147.528,0.997536,2.99199,0.595118,9.23293,6
6.47712,0.194644,0.321261,1.62973,0.0390582,32.5023,133.244,0.992151,3.35707,0.53958,10.8831,7
7.5803,0.202506,0.363678,1.86931,0.0419815,22.4914,115.533,0.992281,3.28799,0.542906,11.3104,6
6.51591,0.346219,0.312553,10.3998,0.0705685,59.2309,172.203,0.996916,3.18097,0.501771,9.42735,5
8.2746,0.226148,0.339454,0.887386,0.041641,20.5008,112.893,0.992542,2.99961,0.469168,10.1852,6
6.54349,0.327303,0.302941,2.76357,0.0522221,20.1046,130.917,0.989558,3.12253,0.519386,12.826,6
6.78138,0.220972,0.310656,6.808,0.036785,34.1068,121.745,0.99159,3.02369,0.388592,11.981,8
5.71257,0.31622,0.502617,2.49358,0.0475573,18.0456,154.759,0.992724,3.2225,0.647153,10.0404,6
5.81726,0.191704,0.325287,3.8897,0.0391728,48.7471,135.217,0.991149,3.15981,0.431174,11.2552,7
8.23872,0.326444,0.418735,0.968844,0.0320781,17.1075,92.6762,0.990977,3.18838,0.31981,12.4261,3
7.99462,0.28866,0.409678,1.6741,0.0428379,49.4143,151.7,0.993245,3.46529,0.488563,10.6974,8
6.1655,0.315825,0.111785,4.89776,0.0530508,5.34959,100.644,0.994062,3.16244,0.491013,9.29205,5
7.97256,0.551852,0.417253,12.6006,0.210277,36.7335,214.189,0.998665,2.99159,0.562458,9.32545,5
6.37959,0.308242,0.304223,12.5297,0.0452861,53.929,160.877,0.995456,3.01921,0.595797,10.2216,5
5.80724,0.278851,0.336045,2.31132,0.036661,24.5636,124.619,0.989622,3.36525,0.326494,12.8089,8
6.46395,0.366456,0.158459,1.71456,0.0526496,10.5918,111.306,0.994092,3.20229,0.387364,8.47352,5
6.86507,0.19129,0.238293,9.81661,0.0583243,64.3841,190.325,0.995391,3.12173,0.512331,10.6033,6
7.63445,0.476727,0.284653,10.5845,0.0486308,56.9871,204.751,0.997475,3.23642,0.458573,9.32156,5
6.27811,0.36608,0.376001,1.68823,0.0219671,12.4989,77.8689,0.988859,2.95414,0.385622,12.2964,6
7.51359,0.260889,0.317291,0.919882,0.0434857,22.062,73.1051,0.992569,3.05933,0.683909,10.4457,5
6.83125,0.195524,0.395439,9.49496,0.0552502,39.4188,100.296,0.995582,2.97818,0.557417,10.4294,6
6.88921,0.39552,0.167421,12.7719,0.0317337,59.0922,187.099,0.997547,3.06755,0.492396,9.44467,5
7.52468,0.200964,0.393263,2.88965,0.0454822,30.2748,181.723,0.994311,3.47263,0.441055,10.8436,7
5.92053,0.314099,0.268974,1.56413,0.0553469,16.704,140.432,0.991556,3.22724,0.365447,10.5703,5
5.95727,0.196377,0.37392,9.64797,0.0309717,16.9723,45.9458,0.99332,3.0661,0.665852,12.0443,6
7.13877,0.198747,0.608755,16.1375,0.0448039,13.4611,102.715,0.998524,3.052,0.368357,9.23114,6
6.8179,0.217853,0.371761,14.8586,0.0502357,68.2418,179.508,0.999398,3.405,0.857161,9.29791,6
7.13139,0.262168,0.443224,7.69976,0.0269178,24.6879,124.378,0.992805,3.01803,0.338663,11.0813,8
7.61173,0.398958,0.274578,1.19788,0.0546642,21.7891,189.025,0.991495,3.21537,0.38233,11.5777,5
7.18792,0.40251,0.241077,8.53918,0.0548753,44.1285,152.731,0.996003,3.20637,0.520794,9.19581,5
6.6329,0.247512,0.296493,12.976,0.0537258,15.5937,143.806,0.998134,3.36798,0.491121,9.33247,6
9.85022,0.417371,0.484843,9.98616,0.0335977,3.94697,109.596,0.995948,2.87711,0.292189,10.0275,5
7.26275,0.311418,0.689766,10.5567,0.0392857,58.6593,160.998,0.997722,3.0582,0.453735,8.55891,5
5.68313,0.269671,0.161958,9.2272,0.0530726,32.3863,106.651,0.994561,3.36592,0.378742,10.4156,6
7.99615,0.189075,0.36318,1.37042,0.0403353,15.5097,95.8437,0.991166,3.06512,0.61037,12.115,6
5.79223,0.273659,0.263081,2.41901,0.0542953,29.9284,158.635,0.991734,3.53683,0.413655,12.4658,5
7.58438,0.162061,0.388968,12.966,0.0455204,70.3996,166.786,0.996934,3.15559,0.808821,10.3782,7
7.26906,0.309482,0.690877,10.0391,0.0408942,58.3129,159.192,0.997878,3.06052,0.452869,8.64157,5
5.07741,0.35989,0.256556,7.03525,0.034488,37.0127,119.085,0.992169,3.39131,0.390735,11.5644,6
6.1541,0.342737,0.307998,2.9149,0.0373314,38.7052,90.6805,0.989373,3.28045,0.529213,12.8278,7
7.07929,0.436489,0.245345,11.928,0.0530238,67.1338,209.488,0.997183,3.05547,0.492567,9.58593,5
7.3647,0.17539,0.294535,0.932729,0.0443084,11.2774,139.898,0.992039,3.19943,0.487962,11.2817,7
6.39432,0.300597,0.396336,8.03662,0.0405625,56.3464,209.486,0.994562,3.32323,0.431854,9.96106,5
7.52158,0.227456,0.283107,2.51254,0.0302155,25.5181,97.2431,0.992195,2.99638,0.541683,10.9338,6
6.29437,0.33521,0.276697,0.831551,0.0453264,33.9572,175.43,0.993572,3.37242,0.538517,9.61456,6
6.87627,0.263526,0.294716,4.08222,0.0413673,31.8061,116.978,0.990125,3.16771,0.313263,12.5444,6
7.35657,0.195942,0.266552,13.6483,0.0571803,44.9922,152.207,0.998029,2.93209,0.402604,8.85795,8
6.90597,0.175597,0.300814,1.71144,0.0484946,13.103,116.481,0.991497,3.1563,0.502874,11.6782,6
6.44928,0.273012,0.291812,2.74641,0.037613,26.6317,107.857,0.991196,3.31823,0.402413,11.6292,7
6.82544,0.247568,0.349461,4.89327,0.0369173,30.8825,105.667,0.992039,3.24302,0.453615,11.8981,6
6.54651,0.216071,0.362234,15.3778,0.0348708,62.2187,149.491,0.998807,3.01926,0.402227,9.15869,5
8.05886,0.206894,0.307114,1.2543,0.0365794,5.47539,47.8311,0.99261,2.99142,0.729563,10.3888,5
6.26022,0.260465,0.31934,15.427,0.0311051,62.3312,187.789,0.998491,3.3243,0.609849,9.38031,5
6.02473,0.1285,0.367745,0.969858,0.031964,61.7374,144.715,0.991726,3.31113,0.437691,11.1944,5
6.27304,0.354361,0.285842,6.97959,0.0451411,56.5289,244.073,0.995541,3.35814,0.550844,10.0017,6
6.11749,0.222856,0.230969,3.21342,0.0547494,15.1655,104.584,0.99479,3.14496,0.413498,8.73353,5
5.98424,0.268827,0.26578,9.21154,0.0522444,42.6849,138.789,0.994097,3.24806,0.527569,10.5311,6
7.15835,0.359108,0.34048,12.5146,0.0498162,5.98393,35.7018,0.994357,3.13841,0.386938,11.4218,6
7.84497,0.221964,0.255979,8.93148,0.0470892,38.6073,126.482,0.996659,3.23811,0.518689,10.2215,6
7.25132,0.25151,0.374518,13.2355,0.051226,35.5893,198.95,0.998544,3.03624,0.463891,8.96208,7
7.90245,0.273904,0.270649,1.23526,0.0336563,25.6676,125.529,0.990795,2.97727,0.509464,11.8216,6
6.10764,0.317773,0.323788,10.3033,0.0325168,21.9573,92.805,0.992679,3.10188,0.429896,12.1474,7
6.04722,0.359148,0.582349,14.8896,0.0421099,41.4823,117.205,0.997884,3.13887,0.507068,9.03212,5
7.64156,0.231767,0.49574,10.3476,0.0377819,45.7905,179.725,0.996557,3.09432,0.576095,9.59027,6
6.04105,0.341693,0.315735,7.879,0.0522956,52.526,184.899,0.996571,3.3914,0.652973,9.40882,5
6.82669,0.369732,0.236828,9.56265,0.0566656,54.1391,166.845,0.995662,3.22524,0.417623,10.1185,5
6.8221,0.320112,0.296703,8.09232,0.0283794,33.6082,120.273,0.99151,3.12209,0.620163,12.5184,7
7.28039,0.167644,0.355969,1.70687,0.0360148,27.9012,107.447,0.993336,3.27219,0.505799,10.1721,6
8.00893,0.238319,0.2848,3.08479,0.0480612,48.4872,163.758,0.995298,3.26311,0.715016,9.44625,6
6.60917,0.203631,0.315569,0.992865,0.0388805,24.7617,74.9333,0.992643,3.40225,0.538059,10.1822,7
6.49085,0.173064,0.324896,1.59404,0.0388568,36.0472,124.583,0.990807,3.05186,0.45435,10.4726,6
5.22226,0.439178,0.0307722,1.32645,0.0369335,44.6351,119.015,0.989324,3.3567,0.338253,12.2608,8
6.09843,0.225906,0.357041,17.2074,0.039515,37.8806,130.487,0.999533,3.23351,0.428653,8.82991,6
7.86856,0.266614,0.275638,1.73506,0.0336455,25.3158,123.944,0.990609,2.96003,0.508626,11.8828,6
6.87267,0.343551,0.357844,1.58626,0.0319986,12.2508,147.957,0.992046,3.06771,0.52813,9.89005,5
5.75221,0.265236,0.165365,9.15814,0.0551495,29.2566,114.939,0.994709,3.3505,0.367921,10.3181,6
7.99765,0.18397,0.484512,1.48171,0.0588497,8.63613,140.304,0.994195,3.24532,0.480039,9.92001,5
7.28543,0.312037,0.684865,10.1565,0.041416,56.1721,158.026,0.997559,3.06864,0.452816,8.69049,5
7.32922,0.185309,0.28605,1.6372,0.0465087,12.4042,146.037,0.991795,3.20404,0.483083,11.175,7
5.64917,0.213848,0.23524,4.64874,0.0268397,35.2605,154.516,0.990828,3.30164,0.309565,11.4989,7
6.79701,0.218493,0.352342,5.24437,0.044197,20.9652,111.799,0.993956,3.30706,0.524693,10.6584,7
6.36464,0.262781,0.191298,2.18814,0.0827039,19.7931,191.022,0.995261,3.49308,0.629983,9.63008,4
6.11432,0.309527,0.253641,2.20543,0.0510033,29.3344,167.752,0.99276,3.37159,0.464546,10.3932,6
7.06785,0.157606,0.2855,2.45527,0.0427646,33.4114,90.7596,0.990535,2.88596,0.473443,11.1672,6
7.38192,0.193763,0.313539,14.4277,0.0450082,39.2062,193.422,0.998464,3.11841,0.502911,9.13832,6
6.87519,0.316471,0.255526,2.31929,0.0301069,11.2739,101.212,0.991006,3.0621,0.419214,11.161,6
6.83168,0.472295,0.35312,3.34364,0.0288286,32.1716,133.145,0.990194,3.1399,0.373202,12.1797,7
7.86473,0.288511,0.391904,6.85318,0.0346781,5.45165,118.212,0.993814,3.11721,0.418131,10.6258,5
5.72314,0.299786,0.378802,5.01339,0.0396472,20.4659,87.5692,0.989675,3.22285,0.587098,13.1058,7
6.61866,0.171221,0.300127,0.790922,0.0339243,13.1596,73.2478,0.990926,3.16737,0.576349,10.9603,6
6.36582,0.227283,0.37825,8.32085,0.0455861,35.8383,126.081,0.993083,2.97169,0.30647,11.0543,7
5.81367,0.191271,0.239736,1.03467,0.044601,38.5354,127.955,0.993428,3.76278,0.593196,10.7217,5
6.95339,0.190898,0.344527,13.4643,0.0386626,49.3023,118.723,0.995594,3.01223,0.619033,10.6713,6
7.06248,0.226194,0.235883,5.35254,0.0389884,61.9663,194.881,0.994559,3.1922,0.775622,10.0051,4
6.20652,0.376248,0.229012,8.05791,0.0247412,36.3685,213.839,0.996623,3.33312,0.607147,9.61794,6
6.16877,0.287554,0.255504,1.37168,0.0324396,25.6446,98.6008,0.989072,3.03435,0.418889,12.1093,6
6.06044,0.197786,0.289107,0.631008,0.0472286,29.0321,93.0284,0.990303,3.22114,0.52358,11.2686,6
6.64945,0.223527,0.22453,17.4922,0.048381,35.953,117.231,0.999196,3.0875,0.464088,8.7443,6
6.4528,0.362556,0.335366,3.98848,0.0358117,24.8995,88.2094,0.991153,3.17921,0.388962,11.2177,6
7.97974,0.224604,0.357023,9.03523,0.0445342,51.4399,187.468,0.99692,3.10217,0.551651,9.62944,7
6.72338,0.260541,0.50906,7.33136,0.0619278,51.1772,194.454,0.995397,3.13263,0.495459,9.75008,5
6.58749,0.377611,0.292386,2.83005,0.0346641,15.9491,99.7124,0.989205,3.03569,0.369682,12.493,6
7.99862,0.229535,0.255817,1.36795,0.0325813,36.8515,135.182,0.993009,3.4582,0.512981,10.3988,7
6.90659,0.351261,0.38997,2.40056,0.0476325,25.6775,155.17,0.991165,3.21692,0.542857,11.0866,7
7.65036,0.305223,0.38764,2.39007,0.0428929,8.40444,100.113,0.992678,3.15353,0.647759,10.9376,5
6.92021,0.459047,0.194217,0.728189,0.0541297,3.60658,125.416,0.992051,3.10098,0.415476,10.3869,6
7.37108,0.229022,0.432244,0.970628,0.0430634,21.6372,112.926,0.993725,3.22052,0.617819,10.5811,6
5.99844,0.203283,0.26914,6.99953,0.0489496,22.2803,93.821,0.992684,3.15474,0.426438,10.9496,6
7.23822,0.219217,0.246467,18.7614,0.0849969,18.9792,107.658,1.00027,3.10728,0.505908,8.66284,5
6.88845,0.284607,0.3293,1.70208,0.0371265,27.7451,127.761,0.993636,3.20986,0.623292,10.2676,6
6.29635,0.286389,0.285424,4.67596,0.0608531,28.3417,86.5388,0.990606,3.24099,0.560513,12.6978,8
8.1825,0.183095,0.383588,1.01042,0.039085,41.8873,91.0655,0.990621,2.87821,0.609635,12.0458,6
6.63678,0.246707,0.299551,14.5833,0.0518455,40.5026,184.35,0.998136,3.03133,0.496033,9.18443,6
9.01161,0.547625,0.298638,8.25531,0.0258506,12.2931,69.2269,0.993049,2.94299,0.358696,11.805,5
6.86325,0.377661,0.310643,8.33896,0.0452085,35.4557,148.723,0.993097,3.37071,0.34393,12.0092,7
7.0895,0.195702,0.312013,1.16303,0.0187412,4.42699,30.4348,0.98937,3.20745,0.369982,11.9011,6
6.54264,0.182942,0.415523,14.1722,0.0391905,45.777,125.759,0.996644,3.28458,0.73029,10.1945,7
8.20516,0.379592,0.358812,0.593505,0.0342117,16.4709,91.3629,0.990574,3.0419,0.308799,11.6264,8
6.59552,0.388403,0.384702,11.8389,0.0562956,51.1905,217.223,0.998302,3.253,0.506571,8.80134,6
6.67962,0.209583,0.331762,1.18253,0.0345325,44.9044,119.145,0.989455,3.23043,0.361624,12.5544,7
7.72277,0.156993,0.482339,1.56864,0.0549356,19.304,127.806,0.995085,3.3168,0.486056,10.7179,6
7.57706,0.239917,0.337974,1.0042,0.0571805,34.0862,176.36,0.9945,3.09327,0.504484,9.53439,5
6.8818,0.148662,0.28321,4.48511,0.0275842,14.9463,106.223,0.993478,3.23549,0.462023,10.39,8
7.29604,0.215456,0.352204,14.4964,0.0463042,35.7309,180.603,0.998165,3.05662,0.466697,8.89945,6
7.38406,0.243923,0.487457,0.872519,0.0441609,34.8872,159.485,0.991855,3.1299,0.549553,11.2954,5
6.75573,0.250603,0.378089,8.438,0.0459542,23.3722,157.326,0.995766,3.32864,0.599537,10.1745,6
5.69371,0.153679,0.272395,4.49746,0.0449225,57.3742,146.786,0.990984,3.22001,0.266932,11.3436,6
6.06183,0.668108,0.0687423,1.08839,0.0599288,8.64116,111.111,0.992941,3.11881,0.343417,8.68537,4
6.45638,0.293572,0.567538,0.446796,0.0607675,14.8248,120.197,0.992211,3.04682,0.407659,9.53282,5
7.35468,0.265543,0.307234,1.52555,0.039442,37.5726,176.382,0.99185,3.17406,0.511978,11.474,6
8.57086,0.200814,0.422708,1.138,0.0418584,33.89,125.846,0.992661,3.10406,0.487423,11.3825,7
6.05212,0.326063,0.361247,2.00097,0.0479008,13.6825,198.733,0.994363,3.47789,0.44057,10.4533,4
6.88586,0.406385,0.217094,5.9386,0.0810095,77.697,305.509,0.997297,3.39895,0.566463,9.37287,5
6.97767,0.312676,0.507347,1.68173,0.0274466,4.24277,61.1427,0.991777,3.08133,0.436158,10.3362,5
6.90231,0.234824,0.343122,2.63915,0.030922,23.9208,116.234,0.990186,3.14199,0.371627,12.3701,7
7.58574,0.323297,0.262865,9.51582,0.0297929,13.4915,139.028,0.993492,3.1118,0.44069,11.9866,6
6.58678,0.427885,0.250567,2.41242,0.0335753,23.1502,80.5246,0.99086,3.04148,0.413117,11.5129,6
7.0688,0.305923,0.253828,7.36998,0.069983,28.2075,162.219,0.995521,3.12191,0.461415,9.8432,6
7.44361,0.215537,0.277454,1.27609,0.04134,27.6283,100.384,0.992728,3.19648,0.322849,9.78976,6
6.64537,0.246871,0.319211,8.88062,0.025906,20.9038,108.174,0.992733,3.34177,0.347784,12.6722,6
6.58182,0.215698,0.339692,11.4568,0.048042,59.2269,137.748,0.995333,3.21622,0.404202,10.6333,5
6.40778,0.26712,0.478983,7.0922,0.0475436,52.4852,206.323,0.995559,3.23663,0.42889,9.26938,6
8.20592,0.287566,0.332184,9.17916,0.0360695,26.7946,119.608,0.994956,2.95117,0.409091,10.814,7
6.64126,0.252143,0.470647,8.17001,0.0471609,47.8136,187.678,0.995814,3.20219,0.535079,9.02453,5
6.27613,0.0982019,0.421145,1.04891,0.0390446,16.8803,77.3704,0.989992,3.14061,0.572859,11.313,7
6.35029,0.697036,0.554654,12.8635,0.0585061,58.2826,248.144,0.997839,3.30236,0.495361,8.5937,5
6.55699,0.19202,0.41076,8.81131,0.0449241,49.8396,172.517,0.995347,3.13408,0.568098,9.77349,6
7.97689,0.158291,0.363288,1.19458,0.0338412,14.4077,121.247,0.994003,3.20516,0.394206,10.3211,4
5.10197,0.297861,0.2793,8.25364,0.026206,27.7411,108.104,0.992896,3.35861,0.360414,10.9767,6
6.16775,0.248235,0.310004,9.05064,0.0330271,41.0204,136.556,0.992398,3.24919,0.259594,12.4365,7
7.34902,0.18203,0.333741,2.60975,0.02995,29.9417,104.713,0.991864,2.96758,0.533007,10.9856,6
6.58809,0.318933,0.32255,2.13527,0.0527522,41.9602,220.622,0.9933,3.13209,0.605613,9.90012,5
6.60854,0.258641,0.361088,8.17631,0.042123,52.6772,179.214,0.996097,3.07235,0.416622,9.23268,5
6.31005,0.1985,0.264315,12.5776,0.0463378,59.3922,145.692,0.995376,3.26613,0.355628,10.8294,6
8.06483,0.222145,0.321902,5.57937,0.0471594,23.9746,95.4494,0.993239,3.09855,0.42403,10.8746,5
7.36532,0.279899,0.542966,13.0682,0.0488586,61.9697,150.564,0.998565,3.07033,0.446093,9.13259,6
6.98204,0.163022,0.37786,1.28242,0.0286094,24.087,72.6747,0.992024,3.30716,0.452108,10.8333,7
6.72521,0.210186,0.375958,1.50708,0.0249407,41.3651,104.505,0.990233,3.09914,0.444299,11.4209,5
7.31837,0.156129,0.3489,1.15634,0.0367055,29.8955,106.212,0.993608,3.27038,0.512915,10.1973,6
7.46639,0.320764,0.545012,16.5733,0.0542991,53.538,237.677,1.0017,2.94695,0.579952,8.74531,6
7.1324,0.303111,0.489025,1.6687,0.0441592,30.8088,100.381,0.9942,3.40662,0.589272,10.2868,5
6.20518,0.155016,0.320184,0.976902,0.0368808,74.5954,178.63,0.990979,3.20955,0.408152,10.9934,6
5.44091,0.195996,0.15272,12.6016,0.051061,31.5068,112.98,0.995841,3.40814,0.383742,10.8003,6
5.89178,0.186786,0.21335,1.65953,0.0451279,56.2909,134.06,0.993259,3.30661,0.441381,9.57419,5
6.27916,0.244495,0.291997,13.2202,0.0364563,54.8018,133.456,0.995857,3.16951,0.380521,10.542,6
6.44406,0.355475,0.15366,1.12464,0.0539832,11.6666,105.919,0.994139,3.18554,0.391921,8.67817,5
6.9457,0.223839,0.498309,7.15224,0.0648785,49.4746,163.952,0.995564,3.53597,0.503225,10.1774,6
6.719,0.191381,0.358969,0.827456,0.0255433,61.6761,143.467,0.990966,3.25552,0.485567,10.9661,6
7.15757,0.19493,0.315445,1.74983,0.0449632,36.2563,132.261,0.993885,3.34255,0.571691,10.2529,7
6.07826,0.21857,0.30662,1.41874,0.0377237,39.9365,127.432,0.991999,3.45171,0.586027,10.7428,5
6.0814,0.252559,0.475216,15.7432,0.0519032,25.6157,94.4491,0.997817,3.06463,0.442642,9.22196,6
6.68857,0.253629,0.288445,5.84757,0.0226952,26.0094,75.1919,0.993077,3.2827,0.530937,11.0075,6
8.64236,0.17313,0.35641,1.64935,0.0408479,23.9076,190.604,0.995593,3.2406,0.545253,9.49676,6
10.268,0.438524,0.893113,6.28766,0.0494038,19.9117,129.9,0.996714,2.99647,0.514586,9.79425,4
6.89749,0.580333,0.580749,8.0189,0.0334955,29.3553,167.956,0.992499,3.27154,0.44067,12.1127,6
9.13463,0.27889,0.476585,2.16154,0.0586236,9.64826,113.004,0.995501,3.16014,0.455129,10.0373,5
5.36488,0.296773,0.303099,1.13414,0.029236,24.2689,95.2035,0.98742,3.30181,0.407575,13.5572,7
6.25351,0.273189,0.18247,8.12263,0.0463499,44.5938,186.678,0.996287,3.24077,0.469386,8.94649,5
7.04483,0.209186,0.323943,4.85795,0.0301885,26.224,75.3197,0.992204,2.87897,0.538441,10.5477,6
7.27888,0.398168,0.247159,6.08291,0.0569483,39.7471,164.674,0.995064,3.19314,0.39959,9.89671,6
8.27599,0.330692,0.423625,1.47876,0.0342817,15.5784,94.0441,0.991165,3.20634,0.3179,12.5178,3
6.67444,0.281904,0.346864,8.6422,0.0492522,31.7341,110.457,0.9947,3.24862,0.534317,11.0489,7
6.39626,0.359795,0.119043,5.9379,0.0570176,5.48692,92.2382,0.995299,3.0539,0.451899,8.46336,4
7.02501,0.334069,0.77958,9.95267,0.0427205,20.4046,251.629,0.994514,3.00655,0.552208,10.9543,6
5.42134,0.186807,0.19193,7.34288,0.0468541,35.2621,112.501,0.994593,3.25431,0.411901,9.50247,6
5.97694,0.196741,0.722455,1.40322,0.150697,10.1429,52.3395,0.992497,3.12086,0.47513,9.94334,5
6.49116,0.297238,0.51837,1.18239,0.0352384,39.8919,191.424,0.992271,3.24856,0.591625,10.4143,6
6.88138,0.281658,0.332446,1.00026,0.0382721,18.0208,96.8302,0.990471,3.063,0.388539,11.7166,6
6.92554,0.335596,0.3055,4.59059,0.0279325,33.1062,146.21,0.991487,3.35608,0.491114,12.3475,7
6.91087,0.341015,0.726269,11.3827,0.0695647,43.5894,149.375,0.996762,3.00097,0.807985,9.25406,5
6.6862,0.232397,0.3285,7.73983,0.0483254,45.7049,176.542,0.994692,3.09171,0.520333,10.1027,6
5.61561,0.25249,0.262526,12.7945,0.0478439,52.6793,110.271,0.997052,3.08414,0.447531,9.44486,6
7.16514,0.243332,0.289258,13.8227,0.0540406,53.3,202.072,0.998982,3.12677,0.380571,9.03245,7
7.34768,0.289507,0.293547,4.75964,0.0274715,26.9001,151.418,0.993046,3.05633,0.263585,10.5666,6
6.64719,0.245077,0.464142,2.50734,0.0320338,19.1219,113.459,0.990416,3.10969,0.612914,11.9767,6
6.24844,0.184001,0.378613,1.6503,0.0287792,34.543,114.58,0.993024,3.47764,0.545159,9.69812,6
5.51199,0.242105,0.338017,1.91293,0.0414047,11.5353,71.9897,0.989815,3.05206,0.441849,11.4824,7
7.86884,0.157703,0.316406,7.66479,0.0514162,58.3829,154.89,0.995847,3.11877,0.375561,9.44391,6
7.7706,0.268022,0.336348,1.62179,0.028282,25.0011,167.584,0.991173,2.97781,0.468726,12.2423,7
6.88728,0.431023,0.284538,9.48337,0.0556265,28.6867,184.935,0.996071,3.16825,0.434976,9.37297,5
7.12332,0.158848,0.363004,10.8022,0.042485,19.222,87.0798,0.995845,3.15978,0.444192,10.9621,7
6.87687,0.537913,0.324195,13.6691,0.0498978,52.4849,237.746,0.99712,3.20466,0.495432,9.65337,5
6.53474,0.404385,0.301673,3.46105,0.044531,20.3501,147.96,0.990045,3.1598,0.313952,12.0019,7
6.3669,0.439494,0.06935,1.07777,0.0283868,9.40897,127.358,0.990512,2.97162,0.283684,10.8902,5
6.40949,0.309646,0.263051,13.2889,0.044879,56.3916,207.172,0.997736,3.17371,0.407325,9.64633,5
6.40535,0.128219,0.387584,1.31191,0.0436346,24.8719,116.536,0.992226,3.27101,0.527634,10.289,6
6.83923,0.395006,0.331321,7.95062,0.0201826,39.2855,136.35,0.992101,3.18101,0.440063,11.9862,7
6.49535,0.207486,0.319833,11.7562,0.0393664,46.7195,165.695,0.997956,3.39274,0.446648,9.85628,7
7.62973,0.279298,0.319594,14.2285,0.0617646,32.2662,202.565,0.998054,2.99518,0.457445,9.2753,5
7.96656,0.235306,0.366974,9.54054,0.0552629,23.483,158.746,0.997873,3.32569,0.470008,9.83951,4
6.53907,0.282743,0.262215,8.5641,0.0412225,43.4866,137.257,0.995503,3.32018,0.364893,10.1986,6
6.66147,0.66375,-0.0085419,12.7758,0.0337529,31.7009,73.0016,0.995554,3.15376,0.50673,10.7257,6
5.37589,0.177774,0.236182,4.58982,0.0416944,30.7576,117.598,0.994467,3.40983,0.403197,9.35477,6
5.25477,0.308293,0.362183,4.90182,0.0297992,45.004,149.109,0.989688,3.1375,0.308632,12.3943,7
6.57859,0.161583,0.357874,0.811171,0.0300745,27.334,88.8587,0.988909,3.23361,0.35635,13.2048,8
6.42959,0.257867,0.248415,0.92258,0.0520532,22.8804,172.09,0.993157,3.09386,0.537421,9.35062,5
7.13582,0.233511,0.407311,17.8166,0.046641,38.0045,146.35,0.999897,3.31182,0.383647,8.70081,5
6.9681,0.147784,0.384179,15.0511,0.0444739,53.9697,120.533,0.997467,3.18338,0.414012,9.91827,6
4.8348,0.331257,0.129194,1.4429,0.0362791,69.0797,171.972,0.991997,3.47098,0.452979,10.4017,5
6.40914,0.250883,0.566301,0.853907,0.0600935,20.1648,121.228,0.992354,2.99684,0.395047,9.49283,5
8.23601,0.331156,0.422043,8.79355,0.0452755,21.2,128.441,0.998219,3.37158,0.47004,9.28858,5
5.99326,0.327748,0.251461,5.05899,0.0503548,13.9844,120.125,0.994228,3.14889,0.408552,9.18168,5
5.70496,0.253628,0.244547,17.8052,0.0582632,24.1961,121.718,0.997842,3.29552,0.484585,10.0345,5
7.14771,0.243983,0.280827,11.3351,0.0351065,39.9199,174.55,0.997498,3.20543,0.454927,8.97002,5
7.71699,0.243544,0.298382,1.36416,0.0462707,32.1461,107.565,0.992657,3.21703,0.55109,10.728,6
6.93049,0.222417,0.349901,6.29989,0.0300098,43.8782,113.188,0.992385,2.80989,0.542574,11.101,6
6.54947,0.350328,0.279466,12.1737,0.0503176,86.5046,211.43,0.996271,3.16159,0.510553,9.97344,6
6.42626,0.294887,0.369759,8.01015,0.0446067,36.1469,191.117,0.995466,3.10855,0.371143,8.91068,5
7.60452,0.236934,0.290956,1.31483,0.0460089,33.8083,80.4713,0.990255,3.03347,0.396538,11.4241,6
7.33791,0.22909,0.36397,14.5362,0.0633907,48.5548,196.864,0.997985,2.88928,0.386031,9.03537,6
7.63836,0.20869,0.359345,1.09934,0.0402037,5.98001,103.247,0.991466,3.06364,0.457327,11.2921,4
6.89898,0.158003,0.291624,9.34354,0.0573111,48.8977,184.864,0.99753,3.39245,0.376318,9.72647,6
7.09174,0.285901,0.344769,7.66182,0.0358663,48.701,125.765,0.993945,3.21036,0.397294,10.668,6
6.11806,0.292368,0.284142,6.39601,0.0447885,34.5796,177.074,0.99319,3.23367,0.51517,10.5908,5
8.79953,0.203356,0.422773,14.9319,0.0535243,58.9343,185.327,1.00093,3.28161,0.794869,8.73505,6
6.25919,0.198521,0.26249,1.69307,0.036355,39.7551,152.734,0.99315,3.48361,0.705183,10.5175,7
6.3877,0.161088,0.238184,1.73446,0.0570347,20.0793,124.885,0.99088,3.23299,0.42884,11.0784,7
6.8015,0.192742,0.355577,1.87144,0.0370676,29.4869,96.9393,0.991743,3.15803,0.537872,10.7905,7
8.29881,0.212254,0.412855,2.26605,0.0504638,23.5008,110.351,0.993845,2.84943,0.448058,9.49927,5
5.86182,0.346007,0.164196,10.4531,0.0339344,25.8524,119.695,0.994998,3.26034,0.493176,9.98203,6
6.10137,0.236633,0.295404,1.45963,0.0452903,21.9186,67.3103,0.992053,3.3063,0.540759,10.3899,5
6.58848,0.642215,0.286413,3.87367,0.0325257,18.2996,76.5186,0.990454,3.10381,0.625379,12.8831,6
6.30434,0.289996,0.276749,4.39933,0.0593848,26.9181,78.4354,0.989985,3.24378,0.564633,12.8116,8
5.46681,0.369658,0.404189,3.10489,0.0543641,29.8585,144.357,0.994835,3.41322,0.507555,9.13172,5
7.80629,0.280341,0.244025,3.71117,0.0233246,27.2974,98.1785,0.989404,2.98065,0.360905,13.0221,6
7.6152,0.391473,0.201103,3.53819,0.0473191,8.22456,116.273,0.99424,3.16429,0.403935,9.44759,5
6.93118,0.245226,0.31095,1.06619,0.0369871,37.9421,121.713,0.992037,3.16983,0.41219,11.2238,8
7.49872,0.212343,0.348937,1.31981,0.061616,25.6768,108.026,0.992994,3.51032,0.452399,10.6768,6
6.58174,0.351417,0.297782,1.79831,0.0203207,23.5679,85.6058,0.989872,3.40629,0.607769,12.3643,9
7.83121,0.28583,0.337464,8.93832,0.0360947,33.2901,176.711,0.996373,3.10993,0.457079,10.6144,5
6.18323,0.181902,0.372511,1.68222,0.0281542,36.2315,115.317,0.992984,3.47899,0.531305,9.77317,6
8.6199,0.303591,0.299505,1.02348,0.0447819,15.3053,112.72,0.992375,2.94509,0.391393,10.1755,5
5.70803,0.178655,0.221165,3.93607,0.0423034,25.2983,108.412,0.994143,3.35898,0.388174,9.34686,5
7.86607,0.250699,0.331544,13.6244,0.0441089,66.9134,182.111,0.999836,3.22553,0.74755,8.88227,5
8.10411,0.344534,0.282314,7.82263,0.0393758,68.8427,232.873,0.995776,3.15288,0.557374,9.81795,6
7.49073,0.273803,0.259233,11.7374,0.0544405,55.5073,171.255,0.997083,3.10513,0.598049,9.86601,5
6.98028,0.254186,0.346896,1.36593,0.0383184,28.2532,188.6,0.990574,3.13935,0.522498,11.0278,6
6.66278,0.621085,0.201236,9.00395,0.0442216,80.9908,220.961,0.996197,3.1636,0.453038,9.27748,5
6.92022,0.138423,0.374991,1.30295,0.042041,21.9081,79.8722,0.990248,3.04038,0.529036,11.2947,6
9.80748,0.362748,0.452201,2.09002,0.041742,11.1801,122.905,0.994205,2.91671,0.465462,10.7763,5
8.13328,0.190105,0.274596,0.889115,0.0233237,48.6203,86.74,0.990381,2.93115,0.364436,11.0772,6
5.54645,0.280356,0.391603,5.95707,0.0322322,36.8073,118.878,0.991373,3.21036,0.426573,12.0313,7
6.45333,0.272015,0.501617,7.01612,0.0454182,53.7194,205.204,0.995837,3.23668,0.423523,9.20262,6
5.9624,0.253236,0.315775,3.70735,0.0264293,27.9415,111.04,0.991393,3.40267,0.709491,12.3507,7
7.02593,0.195663,0.368722,1.17297,0.0484596,27.3339,129.554,0.992394,3.16756,0.522805,10.7877,5
6.73835,0.129641,0.446923,4.28605,0.0431184,51.3856,131.278,0.991955,3.06333,0.544478,11.3303,6
7.67497,0.462398,0.176865,3.21924,0.0544425,18.9456,144.481,0.993913,3.12916,0.507047,10.7694,6
6.57437,0.233963,0.205358,11.7177,0.0436717,45.6945,132.604,0.996054,2.96192,0.512377,9.72751,6
6.67812,0.214506,0.367545,15.043,0.0342933,62.1464,154.602,0.99831,3.01152,0.393912,9.29794,5
8.6967,0.233055,0.306377,13.5499,0.0453454,36.0868,172.155,0.99947,3.12317,0.475307,8.75966,7
7.3391,0.348314,0.281588,11.8942,0.0479097,30.9557,150.232,0.996921,3.21672,0.4882,10.3652,5
6.36728,0.299335,0.390633,8.04515,0.0466264,33.7677,192.937,0.995805,3.08829,0.370458,9.0721,5
5.71037,0.244436,0.319893,12.1046,0.0426433,41.8858,126.73,0.995278,3.23661,0.525212,10.4524,7
7.11472,0.355033,0.237256,15.238,0.0556894,47.538,195.956,0.998728,3.1213,0.48175,8.853,5
5.87847,0.242585,0.259932,12.5911,0.0543029,33.736,138.437,0.997502,3.34057,0.446068,9.51333,6
7.58124,0.172287,0.447763,10.8313,0.0536761,56.0465,135.398,0.996994,3.14466,0.469657,10.1153,5
7.03917,0.389076,0.208854,10.8904,0.0979445,13.6981,91.3304,0.9967,3.03395,0.467494,9.23184,5
7.30708,0.202103,0.216794,1.92348,0.0451643,18.0698,97.1307,0.994615,3.37497,0.533045,10.0171,5
6.46451,0.127999,0.261807,2.4584,0.0344302,32.4364,74.9454,0.991608,3.20375,0.758111,11.3622,6
6.83735,0.30693,0.307318,7.88672,0.0260919,33.2122,125.858,0.991674,3.12879,0.635351,12.6102,7
5.96784,0.329455,0.383945,9.75673,0.0400108,29.2787,125.43,0.995173,3.47834,0.487664,10.9134,6
7.67276,0.306594,0.424993,14.1985,0.044859,45.3426,216.44,0.999017,3.18506,0.621953,9.1988,5
7.01448,0.120246,0.299504,10.3488,0.0408568,40.0906,95.8301,0.995686,3.18193,0.374161,9.70573,8
6.49268,0.19324,0.284503,1.28016,0.0461962,22.8058,87.9684,0.990358,3.17139,0.512048,11.6393,7
8.25594,0.270207,0.445424,1.98567,0.035831,30.4051,130.053,0.99184,3.09842,0.494304,12.3806,6
5.64173,0.198848,0.359265,2.32329,0.0479023,15.102,123.065,0.992726,3.48556,0.492773,10.0846,6
5.60943,0.118458,0.263213,6.04053,0.0331914,22.2414,99.5495,0.993194,3.09294,0.572467,9.8571,6
7.90387,0.423965,0.254773,4.41202,0.0308307,22.9732,100.08,0.991121,3.16018,0.527,12.7411,6
5.79171,0.320368,0.225253,1.86659,0.0327067,39.9637,122.183,0.988553,2.97464,0.355998,12.0388,5
6.21518,0.472558,0.193516,8.0043,0.0286766,24.1017,144.636,0.992085,3.21556,0.460882,12.3106,6
5.28793,0.434668,0.0441203,1.02268,0.035904,42.4641,115.346,0.989366,3.37088,0.328166,12.0234,8
7.21297,0.400309,0.623567,10.7851,0.0407041,69.1145,190.235,0.997545,3.08299,0.493162,8.5866,4
6.70286,0.266427,0.685712,1.60203,0.176728,36.2578,104.901,0.992803,2.95486,0.429101,9.13322,6
5.61826,0.184777,0.466585,1.12536,0.0323722,32.8816,114.168,0.990884,3.36962,0.498203,10.3436,6
8.09517,0.204401,0.49069,7.90174,0.0515244,51.1573,208.524,0.995306,3.12226,0.514569,11.0114,6
6.34668,0.233531,0.209626,4.98289,0.0361939,29.5199,139.512,0.994271,3.3683,0.340048,10.0108,7
7.38261,0.199943,0.299386,12.5979,0.0525547,49.0839,231.31,0.998588,3.15517,0.490834,9.15627,7
6.57977,0.219083,0.364063,5.51738,0.0276518,29.486,101.993,0.991999,3.19726,0.476145,11.9323,6
8.17905,0.179573,0.487587,1.56009,0.0332978,28.761,76.0147,0.992224,3.00237,0.686334,10.2675,7
7.33942,0.16397,0.240085,8.04559,0.119533,33.7964,164.192,0.994981,3.15555,0.380202,10.4912,8
7.21657,0.265283,0.235508,12.336,0.0448424,47.4531,117.235,0.997224,3.02899,0.568216,9.88609,7
6.57053,0.218698,0.186629,1.18626,0.0645961,36.1661,188.856,0.99282,3.05451,0.497715,9.62001,6
8.65262,0.301464,0.340491,5.35828,0.0170679,22.6628,127.837,0.994711,3.10961,0.480901,11.1543,7
7.85312,0.18404,0.255862,2.19264,0.0399625,9.10594,141.147,0.994093,3.05887,0.739929,9.66593,5
6.03072,0.318867,0.120728,5.78573,0.0428744,32.7333,189.779,0.994455,3.15434,0.725903,9.98722,5
7.61195,0.479554,0.327792,9.2435,0.0446923,6.66395,196.336,0.996928,3.0812,0.61686,9.39661,5
6.86661,0.189454,0.402696,9.62909,0.0553716,42.4757,107.397,0.995536,2.97722,0.56295,10.4192,6
7.13211,0.422274,0.203915,2.74293,0.0361622,26.8062,109.018,0.989808,3.22712,0.471891,13.4276,6
7.80711,0.247123,0.359388,1.01874,0.0415602,8.91016,79.3457,0.991356,3.07133,0.371454,11.3654,5
7.15693,0.290261,0.530032,18.5054,0.0462414,59.7749,184.737,0.999369,3.10199,0.521131,9.60028,5
7.71088,0.242622,0.30831,7.8262,0.0390828,66.5842,197.055,0.995616,3.09524,0.506252,10.1932,5
7.54707,0.204742,0.293968,13.9999,0.0572181,52.5548,211.677,0.999105,3.12673,0.468243,8.88451,8
5.60591,0.250429,0.572265,10.826,0.0557279,65.2008,173.429,0.9948,3.25836,0.602553,10.3877,7
6.32866,0.15508,0.403677,1.48508,0.033887,59.1687,148.443,0.991591,3.45208,0.524464,11.3783,5
5.59244,0.339928,0.245258,2.21231,0.0482192,47.514,184.286,0.990918,3.20998,0.403777,11.3416,5
6.92723,0.236192,0.336111,2.61673,0.032723,24.6766,119.256,0.98997,3.14123,0.380292,12.4351,7
5.12848,0.288857,0.278786,8.39417,0.0265121,26.0422,105.81,0.993238,3.35166,0.36835,10.951,6
6.67636,0.546589,0.0334963,2.2828,0.0302743,48.8948,109.552,0.99054,3.14268,0.321495,11.8174,5
6.43323,0.260777,0.424453,12.5114,0.0324114,63.9227,233.887,0.997766,3.07521,0.37355,8.89427,5
7.1094,0.467357,0.297021,14.5372,0.0240525,20.7515,143.321,0.995329,3.12567,0.493914,11.9949,8
7.81058,0.210187,0.344446,12.0131,0.0395294,55.895,141.645,0.995646,3.01856,0.313843,10.2556,6
7.15907,0.229956,0.820902,1.17263,0.15016,70.3744,108.37,0.992926,2.92599,0.424099,9.22778,6
6.16693,0.252701,0.300213,1.14153,0.0369681,41.9016,111.233,0.991059,3.33667,0.562222,10.8392,7
8.29563,0.141822,0.247272,1.64881,0.0485831,54.5504,187.017,0.994723,3.22268,0.62052,9.51111,6
7.31224,0.233359,0.369119,1.81424,0.0309517,60.7847,155.274,0.991917,3.10811,0.346665,11.0977,6
6.2912,0.239573,0.22187,8.04775,0.0543004,45.4184,151.375,0.995386,3.22482,0.515331,9.36741,5
6.04339,0.34434,0.46539,4.75574,0.0288616,20.7108,92.706,0.991071,3.30161,0.613989,12.2511,6
6.87024,0.259598,0.273863,4.02823,0.0317364,18.976,79.2135,0.99116,3.12484,0.389129,11.5281,6
8.25587,0.375045,0.364062,0.989344,0.0337253,17.0847,91.1178,0.990767,3.0391,0.319151,11.7113,8
7.94191,0.143332,0.486579,1.3526,0.0363217,41.575,119.54,0.992976,3.24511,0.402945,10.7639,7
6.55629,0.248941,0.196436,1.84081,0.0231871,28.5747,99.0653,0.991225,3.24339,0.530959,10.939,6
6.57183,0.24206,0.371533,8.23713,0.0422207,55.172,185.269,0.995806,3.21131,0.468458,9.12601,5
7.57206,0.181808,0.280657,7.02929,0.0426856,27.4432,106.893,0.996642,3.19816,0.424617,9.12374,6
5.71587,0.243246,0.287288,1.21604,0.0383738,39.9814,78.4209,0.987068,3.09091,0.295055,13.9406,7
6.10722,0.403479,0.199515,12.4235,0.0316354,53.8577,137.256,0.995011,2.91511,0.439201,10.6969,6
7.26116,0.509222,0.267126,2.85561,0.0892992,7.60327,131.517,0.994208,2.99666,0.51625,8.79042,5
7.98918,0.232357,0.327256,1.03782,0.0422828,26.4045,98.1116,0.990272,3.02551,0.429566,12.4674,6
8.52188,0.151203,0.488198,1.60403,0.0322563,16.3976,122.38,0.993148,3.03086,0.40514,10.2531,6
7.5425,0.130475,0.343595,9.39085,0.0631981,40.4298,122.623,0.996672,3.20022,0.3994,9.53467,5
8.36127,0.583479,0.272112,12.3576,0.0326383,36.9178,115.143,0.995993,2.98542,0.391608,10.7934,6
8.48732,0.305387,0.277774,3.13632,0.0547297,55.2828,172.92,0.99518,3.20614,0.430466,9.38277,6
7.81851,0.198553,0.432769,14.1234,0.0494232,44.3189,129.551,0.998385,3.10318,0.473297,10.0803,6
6.6736,0.324892,0.818821,1.60889,0.150522,47.7276,120.203,0.993057,2.98186,0.386199,9.302,5
6.9007,0.262565,0.328861,13.1093,0.0506018,57.7131,172.989,0.998023,3.39936,0.380248,9.91292,5
6.28434,0.277734,0.372935,7.76705,0.0469679,57.5428,215.972,0.995298,3.20086,0.47386,9.58314,6
6.8311,0.293135,0.328754,5.53145,0.0383667,16.0864,108.439,0.993159,3.04054,0.584953,11.1329,5
7.1299,0.387854,0.281277,13.5832,0.0421944,30.0641,138.865,0.994561,3.01804,0.954498,12.1048,6
6.66821,0.268121,0.298659,13.1545,0.0299428,32.7483,127.967,0.995319,3.35463,0.497133,12.0262,7
8.47641,0.316128,0.360916,15.5516,0.0393118,48.2692,191.959,0.998265,3.08347,0.314641,9.95748,6
7.42049,0.161245,0.261989,15.7154,0.0509518,24.6912,138.593,0.998334,2.89487,0.434421,8.72149,7
5.99208,0.662257,0.0621387,1.29426,0.0595562,8.08288,108.441,0.993391,3.10647,0.341969,8.631,4
6.6678,0.195257,0.323628,3.3814,0.0413886,26.0664,73.3607,0.991696,2.90282,0.571779,10.5458,7
6.91526,0.253334,0.353375,0.936124,0.0390815,28.2732,191.956,0.990859,3.13047,0.517326,10.8873,6
7.24199,0.314375,0.351508,6.81249,0.0451996,45.2583,178.445,0.995354,3.1336,0.537864,9.59075,5
6.79076,0.185092,0.28034,8.66136,0.0476885,51.9916,242.814,0.995339,3.22554,0.537416,10.4555,6
7.56611,0.270852,0.293173,17.2895,0.0497571,33.2014,171.568,0.999069,3.10105,0.640434,10.1688,5
7.58133,0.271687,0.327757,5.00459,0.0413958,17.8784,57.86,0.991068,3.06313,0.47709,12.4273,6
9.36778,0.286511,0.297699,1.35193,0.0425658,35.0471,141.136,0.995355,3.10311,0.490106,9.38896,5
8.7935,0.225013,0.734741,3.11229,0.0422062,15.2396,125.834,0.99349,3.02625,0.516456,11.1674,6
6.18715,0.294168,0.258788,12.8086,0.0455469,55.0112,203.678,0.997357,3.16949,0.412715,9.54758,6
7.09936,0.179781,0.313137,11.9255,0.0492622,35.4193,122.756,0.996718,2.9182,0.536907,9.39271,6
7.84972,0.284959,0.366157,11.0163,0.0327853,40.5901,208.053,0.996939,3.13506,0.465981,10.3081,5
5.68073,0.370778,0.295002,1.05678,0.029156,24.3123,87.0082,0.98888,3.17946,0.395123,11.705,6
6.9306,0.323909,0.300043,2.14129,0.0362295,28.6543,113.078,0.992709,3.25016,0.47792,10.9957,6
6.17027,0.19751,0.324934,2.91165,0.049486,17.7472,125.757,0.993444,3.17267,0.546801,9.3842,6
6.50768,0.229247,0.502745,16.553,0.0478289,37.1141,180.477,0.999171,3.02203,0.487193,8.79019,6
8.28759,0.230272,0.310313,2.45291,0.048685,22.1909,148.012,0.99527,3.0757,0.499095,9.4787,6
6.53161,0.258372,0.292842,1.48257,0.0397826,13.853,65.7385,0.99147,3.04969,0.491873,10.8319,6
6.1976,0.284291,0.327854,2.87605,0.0422095,21.8784,219.66,0.993545,3.26339,0.600909,9.72774,5
6.44414,0.0808323,0.327734,1.83675,0.0284804,23.2451,93.2656,0.991032,3.33185,0.695046,11.9478,7
6.99841,0.333731,0.278094,5.87815,0.0334518,39.3211,205.17,0.991837,3.17059,0.644103,12.4143,6
7.11692,0.356731,0.269884,2.54369,0.0346714,35.3239,115.499,0.989366,3.18706,0.442792,13.4563,7
7.41073,0.646578,0.468796,14.141,0.168156,41.3937,183.13,0.998301,2.9114,0.488969,9.34317,5
7.40193,0.160135,0.290705,13.7185,0.0553019,35.7234,171.382,0.998589,2.90655,0.439564,8.72806,7
5.79883,0.126188,0.227164,12.2449,0.0572452,24.9672,186.146,0.995564,3.32854,0.430515,11.6879,6
6.9419,0.139297,0.284134,16.2873,0.0589837,45.1828,110.278,0.997418,3.14983,0.359025,9.74655,6
7.14564,0.283616,0.195315,7.94381,0.0394753,48.4069,182.597,0.995744,3.15484,0.515952,9.4025,5
8.00513,0.229731,0.266374,1.56099,0.0310887,35.0641,134.37,0.993536,3.43693,0.506581,10.3603,7
6.71413,0.32618,0.487427,1.59714,0.16671,20.7454,94.2415,0.991592,3.11032,0.50919,11.3738,6
4.93745,0.240447,0.27007,11.5014,0.0296838,34.4001,116.676,0.995186,3.06325,0.494121,9.46213,6
7.36185,0.288614,0.480134,12.962,0.0368703,61.9761,184.291,0.997771,3.01773,0.341438,8.93133,5
6.8457,0.203238,0.270849,17.5645,0.0418856,41.6063,146.313,1.00015,3.30018,0.358129,8.7405,5
5.96806,0.234891,0.290259,1.75597,0.0322115,28.6733,89.1532,0.991976,3.38497,0.693155,10.8542,7
6.73281,0.272696,0.426279,7.49227,0.0304653,30.5843,111.331,0.991675,3.08911,0.595416,12.4739,8
6.49896,0.342821,0.272832,1.24497,0.0414318,44.424,188.143,0.992795,3.12867,0.366514,9.64154,6
8.08805,0.332369,0.266407,7.4621,0.0420198,69.0424,234.592,0.995576,3.15169,0.553507,9.97697,6
7.35208,0.266483,0.3067,2.19401,0.0422125,57.5224,179.547,0.994161,3.40948,0.67457,10.6713,6
6.8851,0.175591,0.382442,6.07525,0.0373567,19.9604,108.01,0.99421,3.09109,0.42677,10.4923,5
6.56149,0.197528,0.133149,4.2807,0.184347,36.0805,170.777,0.99403,2.93877,0.451571,9.44633,6
6.9826,0.434838,0.241956,12.3499,0.0557079,67.2347,209.767,0.997181,3.05145,0.497961,9.45227,5
5.7985,0.250223,0.245255,13.5758,0.0444635,40.102,137.558,0.997211,3.32946,0.43005,9.53925,5
6.88696,0.750675,0.137134,6.41359,0.0346052,18.8417,50.6156,0.993223,3.10252,0.253447,11.0944,4
6.73128,0.113191,0.333958,9.23834,0.0440983,40.122,115.448,0.99632,3.41122,0.406187,9.3948,7
7.42288,0.185513,0.39413,1.40142,0.0476769,24.3307,102.949,0.993518,3.28194,0.430918,10.6531,5
5.98418,0.413352,0.224789,0.428141,0.0657382,21.5961,147.378,0.992816,3.29561,0.465938,9.7431,5
6.20993,0.239324,0.364507,1.4287,0.0369951,22.9493,166.157,0.991101,3.10579,0.481081,10.6319,6
6.78419,0.26875,0.295543,12.7707,0.0486642,68.6184,159.628,0.996766,3.1517,0.500152,9.68366,6
7.53505,0.388864,0.292679,4.68541,0.020944,38.9626,111.543,0.990056,3.07114,0.473151,12.9343,7
7.19365,0.198841,0.617852,15.7376,0.041786,12.1462,103.206,0.998821,3.05277,0.365322,9.20467,6
5.85206,0.257053,0.291824,5.89551,0.0473409,32.9473,114.716,0.992079,3.24254,0.411303,11.3732,6
7.24001,0.242489,0.266704,11.0798,0.0352972,41.8051,175.281,0.997603,3.19303,0.436669,9.02105,5
7.12413,0.259135,0.311596,2.1318,0.0434618,28.8165,130.246,0.993701,3.35815,0.647207,10.9182,8
6.62862,0.22884,0.296179,14.5162,0.0573957,30.249,144.234,0.997487,3.33467,0.542216,10.2331,6
5.65187,0.255352,0.185562,1.15112,0.0339362,17.3068,136.229,0.991636,3.32436,0.342362,10.2459,6
6.906,0.537948,0.0242886,1.02987,0.033761,38.9014,105.434,0.993156,3.21159,0.32412,9.03827,5
8.14576,0.170745,0.436118,14.0448,0.0525226,43.356,149.615,1.00029,3.29404,0.747185,8.69701,8
8.24309,0.33579,0.411434,1.13181,0.0330452,18.2905,95.5464,0.991206,3.19078,0.321553,12.4234,3
7.13183,0.324471,0.297727,3.9538,0.0374854,33.0959,169.71,0.994314,3.26868,0.63559,10.1006,6
6.23247,0.281003,0.295891,6.48164,0.206091,59.7405,153.793,0.994947,3.08907,0.396029,9.4197,6
6.90198,0.314257,0.180209,7.17409,0.0416982,71.7046,224.706,0.996066,3.1526,0.405152,8.91907,5
6.69824,0.109229,0.262327,14.9163,0.0540029,42.6173,97.3843,0.996653,3.18273,0.34203,9.87156,6
7.28658,0.188776,0.267802,13.5774,0.0573941,43.3785,152.391,0.998015,2.93427,0.40524,8.80239,8
6.30928,0.347426,0.297665,5.53018,0.0356045,7.77915,97.2463,0.992626,3.26409,0.403811,11.1059,7
5.85711,0.269715,0.293496,5.49654,0.0453383,35.1293,116.112,0.99246,3.24171,0.413765,11.4469,6
6.81765,0.205246,0.274082,2.8437,0.0538271,48.6133,157.425,0.994572,3.02297,0.47495,8.86828,8
7.63873,0.437649,0.246633,10.8604,0.0315789,41.6685,167.042,0.99443,3.11176,0.436567,11.3177,7
6.90068,0.239768,0.307294,13.6142,0.053308,68.6295,202.151,0.997077,3.22497,0.486956,9.61265,6
7.03478,0.121079,0.319419,6.97603,0.057873,22.0331,87.4954,0.996846,3.28625,0.378039,9.15603,6
5.60465,0.336933,0.112274,1.23859,0.030745,19.4586,67.805,0.990359,3.36261,0.517586,11.1962,7
4.83568,0.324017,0.00917358,6.36934,0.0284194,34.4923,163.343,0.993812,3.34114,0.606214,9.86923,5
5.87586,0.287167,0.313464,7.29337,0.0370172,58.0782,204.417,0.99496,3.24853,0.410956,9.52285,5
7.20618,0.327351,0.283031,1.61307,0.0331248,26.8022,107.087,0.992406,3.278,0.56735,10.6161,6
7.28202,0.319226,0.334342,1.94539,0.0430728,59.725,169.445,0.989602,3.25692,0.531627,13.2814,7
7.42361,0.205852,0.676223,10.8281,0.0468533,37.4575,135.488,0.997453,2.9865,0.353786,8.75003,5
7.29526,0.250243,0.255527,7.02182,0.0482196,51.5461,209.452,0.995627,3.12404,0.361988,9.12216,5
8.07882,0.27757,0.416634,7.23191,0.044345,40.867,167.994,0.99614,3.17203,0.435819,10.5564,5
9.63792,0.255842,0.533649,1.34185,0.0391433,16.4026,161.622,0.993981,2.95367,0.431948,10.5704,5
6.79191,0.209482,0.401459,6.60406,0.0332407,39.1021,119.552,0.992202,3.17189,0.521216,11.9775,7
7.26413,0.181213,0.305442,17.3374,0.0562033,32.1986,194.983,1.0002,3.12503,0.454801,9.01266,6
7.15891,0.239611,0.294571,2.20913,0.0370318,36.8873,101.861,0.992211,3.28479,0.638852,11.1045,7
6.62312,0.333411,0.188572,6.34551,0.0814653,46.8493,239.772,0.997127,3.42837,0.467354,9.19763,5
7.28387,0.174978,0.299804,1.45076,0.0450537,19.2568,72.2359,0.992513,3.32034,0.395944,10.7681,7
6.80719,0.17817,0.302492,13.026,0.0612004,18.7246,170.88,0.998211,3.00017,0.514995,9.03529,7
6.75511,0.318576,0.324094,14.4617,0.0376191,5.66564,77.9135,0.994063,3.14319,0.338685,12.4627,5
5.97635,0.187569,0.255925,12.212,0.0477407,50.3963,148.839,0.997431,3.29496,0.358886,8.94205,6
6.50725,0.143934,0.551548,6.19782,0.0431395,75.1327,162.578,0.994471,2.95434,0.388964,9.31152,5
6.62444,0.170156,0.261912,7.20418,0.0536031,45.8504,129.281,0.993987,3.15757,0.364096,9.98502,6
7.98865,0.257354,0.263491,14.5241,0.0430633,40.2595,247.606,0.998619,3.03224,0.578551,8.677,6
6.63126,0.243136,0.351163,7.97106,0.0443075,54.1204,179.493,0.995975,3.08435,0.419953,9.16651,5
5.23458,0.314985,0.363666,5.6969,0.029345,46.8577,146.218,0.989752,3.13417,0.323215,12.4301,7
6.11669,0.236681,0.282726,11.2586,0.0504295,49.7524,135.424,0.99438,3.22992,0.370479,10.7683,6
9.08256,0.134102,0.372066,1.41718,0.0333232,34.6629,86.3902,0.991184,3.03921,0.552525,11.5591,6
6.72428,0.228009,0.327629,1.64089,0.0354322,23.529,96.7319,0.992467,3.32779,0.404442,10.8147,6
6.86529,0.406,0.372246,8.98259,0.0527807,35.3884,147.474,0.995975,3.1552,0.502376,9.29463,5
6.38407,0.279127,0.279507,3.03909,0.0402457,19.0148,100.672,0.99222,3.24283,0.468324,11.1953,6
5.47165,0.138473,0.268211,4.28977,0.0284447,22.5957,106.443,0.994816,3.3401,0.436125,9.08171,5
6.90294,0.40305,0.372542,8.7202,0.0536854,37.2042,149.419,0.996089,3.15269,0.498549,9.28129,5
5.87586,0.192926,0.204635,1.29838,0.043963,57.6003,137.683,0.993594,3.31928,0.443586,9.51584,5
7.04255,0.316316,0.291896,6.16941,0.0315673,38.1744,111.572,0.992436,3.38348,0.581372,12.1174,7
6.2657,0.299704,0.285706,5.22723,0.0433094,35.525,166.828,0.995167,3.22282,0.692619,9.40066,6
7.21509,0.389306,0.550223,1.606,0.156149,34.8778,132.606,0.994304,3.11318,0.527367,8.90952,6
6.70431,0.180118,0.303865,6.28683,0.049151,40.3816,250.532,0.99559,3.28752,0.517214,10.0484,5
6.1311,0.342775,0.29762,11.0121,0.0477194,28.3602,238.495,0.99798,3.16346,0.481175,8.71149,5
7.66526,0.218109,0.607001,1.9284,0.0458214,47.4048,164.529,0.993597,3.04698,0.540932,10.175,7
7.48804,0.241232,0.489398,9.65698,0.0482075,49.9684,146.954,0.99618,3.16488,0.59211,10.4812,7
6.60337,0.241696,0.298947,1.65164,0.0239417,19.4048,85.0882,0.990225,3.25596,0.449776,12.5311,6
6.82028,0.313814,0.22216,2.27314,0.0454756,14.49,67.3939,0.993274,3.16539,0.383029,9.41151,6
6.7625,0.321306,0.432083,2.05906,0.0501777,2.59894,63.2411,0.993354,3.2777,0.466373,10.7193,5
7.0309,0.357526,0.348358,2.53762,0.047804,67.6622,159.416,0.991557,3.05165,0.573164,11.0282,6
7.78697,0.155764,0.303595,4.31518,0.0360926,35.697,173.356,0.996917,3.47698,0.436401,9.06144,4
7.46019,0.326434,0.25617,15.8808,0.0503294,66.7572,209.835,0.999038,3.06722,0.682238,9.62832,5
7.92046,0.370417,0.314549,2.65246,0.0353077,5.41866,24.0279,0.991177,3.19199,0.35567,11.7742,6
7.38499,0.191676,0.29439,13.0407,0.0525167,48.4797,231.617,0.99852,3.15003,0.494785,9.20287,7
6.69789,0.155302,0.375894,1.37104,0.0370479,20.2716,87.7536,0.990396,3.0935,0.524795,11.387,6
6.70621,0.30821,0.439901,18.2219,0.0568723,64.1294,225.503,0.999654,3.12113,0.527783,9.08305,5
7.40986,0.258114,0.373442,13.4442,0.0602079,51.6436,189.346,0.997606,3.01114,0.440828,9.0404,5
6.81245,0.305313,0.307978,7.95536,0.0294434,31.445,121.159,0.991539,3.1266,0.640336,12.5455,7
8.11441,0.20749,0.27281,0.926446,0.0250864,48.9543,89.0337,0.990637,2.91484,0.359825,11.0356,6
5.36335,0.50011,0.135658,5.56049,0.0275199,12.3707,105.356,0.99101,3.48372,0.879682,13.4853,7
7.59692,0.519706,0.500215,14.2437,0.0350427,37.4544,157.249,0.995857,3.13915,0.383957,11.7661,7
5.31481,0.311801,0.384954,10.3866,0.0315101,52.6925,143.23,0.993377,3.3465,0.46081,11.7114,6
5.22158,0.235632,0.454424,6.54765,0.0668323,40.032,186.996,0.993725,3.18431,0.423604,9.71413,5
5.95709,0.260438,0.153203,1.10496,0.0523194,36.014,123.975,0.993486,3.08687,0.458427,8.75906,5
6.18406,0.117684,0.339953,1.67801,0.0465871,43.8845,118.983,0.993756,3.41418,0.51994,8.90434,6
6.2872,0.266444,0.216861,4.2562,0.0302473,24.2947,127.57,0.991519,3.04341,0.343808,10.6124,6
6.98811,0.224054,0.341935,1.76686,0.0356011,30.6261,110.946,0.99101,3.1481,0.477476,10.8322,7
6.88203,0.226727,0.33113,12.5528,0.0575123,44.3169,168.191,0.998121,3.4248,0.422925,9.80627,6
6.64311,0.169441,0.259782,7.26698,0.0534525,45.3072,129.558,0.993955,3.15984,0.365279,9.90808,6
6.2944,0.342322,0.232776,1.6625,0.0541154,25.1288,118.394,0.994437,3.35984,0.502945,9.2626,5
6.85575,0.397329,0.432927,6.66832,0.0663885,42.0865,178.015,0.99542,3.11495,0.539821,9.37514,5
7.94466,0.223869,0.253749,4.50082,0.0453943,38.6001,163.396,0.992776,2.98467,0.278956,11.4126,6
6.54288,0.34537,0.277609,12.3375,0.0521027,84.3198,213.521,0.995928,3.15767,0.508578,9.75757,6
6.88985,0.427846,0.282406,9.20837,0.0565074,29.1432,181.077,0.995975,3.15054,0.426101,9.36343,5
6.5859,0.324831,0.471529,15.92,0.0626863,27.3979,172.568,0.99859,3.17606,0.554657,8.96487,5
7.60704,0.199512,0.289217,14.5507,0.0574699,53.3059,211.645,0.999162,3.15417,0.454208,8.95085,8
7.51363,0.232879,0.309827,13.094,0.0503069,25.8739,179.738,0.9988,3.05404,0.530056,9.07904,6
7.22009,0.469943,0.651052,8.37641,0.0830675,26.4499,184.073,0.996401,2.99987,0.354062,9.20671,5
7.56018,0.193952,0.677502,12.9798,0.0398965,55.2432,158.293,0.99885,3.04829,0.401718,8.62814,5
6.95853,0.39015,0.40137,4.99194,0.0202805,4.74204,20.0576,0.99159,3.31358,0.369286,12.6805,3
7.95758,0.33555,0.510285,15.1811,0.0466516,55.1863,168.284,0.998784,3.07288,0.519694,9.15796,5
6.62847,0.252072,0.314741,1.30289,0.0601131,30.3213,220.793,0.993886,3.16105,0.530417,9.44339,5
6.52289,0.190924,0.346973,1.43099,0.0283147,40.0634,116.008,0.989593,3.21621,0.666551,12.4913,6
7.52978,0.5673,0.128512,10.1066,0.0971936,21.499,173.812,0.998194,3.31979,0.450171,9.07709,4
7.3257,0.195389,0.490446,6.88569,0.0370407,15.989,112.108,0.993795,3.19572,0.388884,10.9441,7
7.25225,0.195712,0.267258,14.0259,0.0555294,45.4165,152.134,0.997923,2.95475,0.421524,8.87043,8
6.82068,0.184096,0.303191,12.4313,0.0581005,18.6161,170.128,0.998343,2.99091,0.525637,8.95281,7
6.46583,0.261878,0.306065,1.69311,0.0267175,32.6079,135.735,0.992062,3.22012,0.47637,10.5459,6
5.50073,0.588503,0.0660245,6.87155,0.0452873,37.1942,144.067,0.994389,3.33982,0.566798,9.62496,6
7.22945,0.395739,0.614815,10.4391,0.0398913,69.0793,186.07,0.997415,3.08349,0.485009,8.54229,4
6.2757,0.267831,0.259066,12.2675,0.0455545,42.3758,127.335,0.995095,3.16328,0.367327,10.7927,6
5.83712,0.299044,0.282272,3.09107,0.0352273,16.4886,121.231,0.989755,3.25374,0.424617,12.4436,6
7.11269,0.215534,0.327491,16.6918,0.0555335,49.4777,155.928,1.00001,3.3741,0.38768,9.55276,6
5.62791,0.288832,0.26495,4.05134,0.0428999,52.335,160.171,0.992359,3.3447,0.437106,10.6613,7
6.00542,0.157556,0.294519,6.94194,0.0417771,43.7313,150.042,0.994973,3.6328,0.452408,10.5857,5
7.48764,0.22499,0.271931,14.7774,0.0659836,32.8145,164.332,0.99868,3.03086,0.440978,9.27152,4
6.73294,0.273362,0.125635,1.03896,0.0410574,86.2096,165.858,0.991959,3.1905,0.420621,9.95388,5
6.49941,0.289728,0.513999,8.30257,0.0482547,35.127,194.529,0.995624,3.16044,0.503242,9.564,6
6.31719,0.102332,0.290101,0.987521,0.0336343,43.7788,135.982,0.991214,3.17472,0.543805,10.7668,7
6.6315,0.249863,0.307927,1.28504,0.0366197,31.1613,125.604,0.991942,3.40277,0.468497,11.2188,6
6.05145,0.277724,0.531562,4.68791,0.0783957,29.054,139.229,0.994854,3.1072,0.356754,8.95785,6
6.10289,0.182842,0.268993,1.912,0.0900401,38.9303,143.92,0.992018,3.49172,0.618764,10.8849,6
6.96715,0.223012,0.25912,9.18431,0.0274792,38.5282,123.157,0.992347,3.06737,0.335084,12.4829,8
7.34684,0.159348,0.271105,15.4185,0.0489426,25.1316,138.272,0.998423,2.90114,0.429988,8.66655,7
5.66429,0.143626,0.302913,5.75206,0.0364902,7.73623,81.4774,0.9923,3.29853,0.388667,10.5666,6
7.82335,0.24741,0.338756,13.7739,0.0441593,65.9531,182.162,0.999828,3.22905,0.747797,8.90091,5
6.74898,0.181671,0.356604,2.21862,0.0345029,31.1418,98.811,0.991599,3.14991,0.538271,10.7784,7
6.38015,0.267035,0.219232,2.61998,0.0477849,14.2684,100.09,0.993579,3.27577,0.422612,9.9182,5
7.6161,0.385226,0.321329,3.77573,0.0341386,22.7224,90.1864,0.991433,3.07483,0.596315,12.4772,7
7.9704,0.183166,0.36547,5.86923,0.0573845,31.3728,130.851,0.995093,3.24436,0.51974,10.8837,6
6.56773,0.290659,0.240882,6.70273,0.0399508,18.6146,112.68,0.993672,3.16912,0.382677,10.0966,6
5.99249,0.281551,0.243263,17.7632,0.0466806,42.7271,107.875,0.999052,3.09134,0.450456,8.8424,6
6.60672,0.559513,0.220931,9.03941,0.0344489,26.4421,135.119,0.996842,3.20046,0.509635,9.05277,5
6.36283,0.276522,0.430463,6.95476,0.044188,61.1733,222.561,0.995058,3.08113,0.44658,9.41779,6
5.56507,0.160236,0.260411,5.26982,0.0503031,50.4359,138.844,0.993354,3.48157,0.511285,11.0092,6
6.93833,0.304105,0.365316,4.56589,0.0551181,30.7991,199.82,0.99493,3.41379,0.574542,10.432,4
6.91948,0.240239,0.399674,1.31051,0.0375306,22.7964,100.902,0.989804,3.02624,0.391505,11.3509,6
6.39263,0.32242,0.261392,7.56272,0.0500633,53.3288,175.834,0.995184,3.13724,0.502223,9.57748,5
7.1149,0.155418,0.316613,0.690835,0.0322746,28.296,78.641,0.989681,3.22273,0.353762,12.1237,6
6.73195,0.315836,0.306253,7.75027,0.0274582,32.6235,124.484,0.991684,3.12786,0.618934,12.5156,7
6.8205,0.214318,0.282073,18.3911,0.0402837,42.1748,147.183,1.00003,3.29761,0.354408,8.69363,5
6.1956,0.367385,0.241328,5.77013,0.0340493,18.8393,86.509,0.989346,3.04337,0.258972,13.3852,8
6.01808,0.16201,0.244628,1.35896,0.0462398,17.7583,76.1929,0.993171,3.65702,0.577928,10.2436,6
7.3303,0.357391,0.346206,14.7711,0.056857,47.4948,174.545,0.9978,3.1497,0.56566,10.1478,5
7.73145,0.380639,0.219838,11.0204,0.0286829,27.9355,93.9684,0.991719,2.94193,0.417911,13.6201,6
6.77834,0.180491,0.271422,10.0111,0.0387974,30.0796,113.056,0.994077,3.11266,0.449255,10.8376,7
6.65615,0.351492,0.319831,8.95943,0.0330912,29.3686,119.373,0.991858,3.12165,0.654898,12.835,7
7.32137,0.430492,0.368816,4.63377,0.0283696,17.4545,112.192,0.991154,3.23642,0.415609,13.1287,6
7.51322,0.233988,0.289742,1.05957,0.0465232,35.2784,83.8532,0.990222,3.03787,0.387291,11.4206,6
7.62812,0.189075,0.299447,14.5597,0.0564404,52.6454,215.264,0.998665,3.13525,0.450539,8.91061,8
6.68862,0.314129,0.300633,2.1894,0.0387283,30.2834,82.6571,0.988971,3.0974,0.356331,12.7521,7
7.25115,0.192057,0.243317,6.24518,0.0551877,33.3247,233.205,0.996521,3.35169,0.541247,9.92901,6
5.94135,0.302658,0.28382,0.999989,0.0356011,22.8324,55.2086,0.990111,3.17607,0.37764,11.3587,5
7.18699,0.285947,0.534771,16.588,0.0448939,54.3302,198.573,0.999078,3.06745,0.486314,9.47737,6
6.92904,0.277315,0.300608,8.36918,0.0282787,37.0417,113.549,0.991324,2.98746,0.382559,12.2869,8
5.94003,0.345854,0.2926,6.23333,0.0465626,28.6718,135.078,0.994728,3.47892,0.566083,10.7404,6
6.66455,0.333269,0.299937,8.35382,0.0574699,23.5515,154.776,0.996227,3.4638,0.64338,10.9739,7
6.69309,0.615649,0.242373,0.976732,0.0415748,5.97184,62.4035,0.993322,3.41511,0.323951,10.397,5
6.07695,0.322603,0.247703,1.57868,0.0353146,37.6831,122.786,0.990011,3.29788,0.413504,12.3963,7
6.60657,0.393537,0.45462,6.13143,0.057976,42.1394,239.711,0.996752,3.49701,0.597096,9.86037,5
6.11669,0.401825,0.136229,9.90705,0.0354696,17.2647,117.503,0.995967,3.36486,0.44573,9.96461,5
5.64192,0.413048,0.223119,6.93509,0.0484384,45.6877,158.422,0.99296,3.3066,0.395945,10.633,5
6.5473,0.341732,0.410462,7.41489,0.0460075,66.7279,174.862,0.995012,3.1359,0.506079,9.65146,6
6.43677,0.291689,0.513503,5.67268,0.0466885,62.3547,172.387,0.994443,3.07899,0.450181,9.15153,6
6.00335,0.344142,0.297374,5.94005,0.0467223,28.7406,135.639,0.994578,3.48136,0.57129,10.6669,6
8.72948,0.227533,0.320365,13.1022,0.0444394,34.9987,168.643,0.999786,3.13626,0.46513,8.90002,7
6.56382,0.189484,0.986381,1.42624,0.122076,43.7805,132.139,0.993757,3.08563,0.306259,8.66241,6
7.52992,0.31467,0.244083,7.03658,0.0287294,28.4015,141.735,0.993995,3.16613,0.378318,10.6356,7
6.10435,0.365812,0.580887,15.1031,0.0446943,41.8733,113.943,0.997778,3.14308,0.508268,8.91825,5
6.93639,0.201195,0.307311,5.82534,0.0381037,31.1362,120.812,0.993968,3.2364,0.510822,10.8042,5
8.76467,0.216978,0.425376,1.94046,0.0554883,26.3896,117.642,0.99406,2.98114,0.433746,10.0059,5
6.27768,0.350608,0.309974,5.82849,0.0357598,8.14728,97.5431,0.992845,3.2834,0.406425,10.8652,7
7.79641,0.253741,0.281212,7.06753,0.0399342,45.689,176.122,0.995327,3.13721,0.598485,10.1036,6
7.92724,0.351194,0.390774,1.51172,0.0260294,25.3312,91.5172,0.991328,3.13998,0.496506,11.7925,6
6.73584,0.26071,0.282723,7.68556,0.0361887,39.1055,177.507,0.994911,3.23239,0.569353,10.4103,6
6.74955,0.176598,0.374835,2.16977,0.040698,34.6939,124.609,0.992025,3.27044,0.595189,10.7107,7
6.24699,0.427357,0.321116,8.56293,0.041727,19.0502,104.376,0.99177,3.27059,0.339263,12.9604,7
8.32322,0.493162,0.231569,6.28029,0.0338295,6.8844,156.346,0.993656,3.06273,0.48034,11.2391,5
6.28976,0.266015,0.452111,11.0358,0.0538547,45.1715,173.97,0.99718,3.18096,0.673407,9.44625,5
7.8234,0.264772,0.269559,1.57715,0.0331133,24.2899,122.801,0.99089,2.97957,0.519022,11.8782,6
7.411,0.25609,0.299249,8.26782,0.0485759,37.4626,155.304,0.996301,3.13308,0.474439,8.83931,6
6.89973,0.160353,0.375617,1.67222,0.0323796,35.7683,92.3977,0.989274,2.91977,0.587946,12.044,6
7.71302,0.261785,0.513075,2.4754,0.0437099,26.2801,159.763,0.991125,3.01965,0.497996,11.1535,6
7.49629,0.285868,0.258503,14.3838,0.0690853,47.2581,173.295,0.998367,3.04799,0.490851,9.22577,4
7.13422,0.24874,0.316706,9.91123,0.0414011,66.778,271.064,0.997126,3.16906,0.511462,9.07176,6
6.66043,0.253883,0.294289,14.3609,0.0498811,40.3952,180.98,0.997689,3.02938,0.498868,9.04144,6
7.02937,0.173122,0.427366,1.16728,0.0773442,18.9433,69.0537,0.990827,3.32451,0.623298,11.3253,6
6.77283,0.366675,0.281371,4.05758,0.0294016,28.4025,79.0219,0.989904,3.23531,0.471394,12.3953,7
5.90292,0.391799,0.316292,5.47103,0.0343255,50.3327,125.208,0.991877,3.51692,0.578741,12.5505,7
5.25203,0.284816,0.294666,5.15243,0.0352799,65.3966,139.345,0.989438,3.1792,0.343727,12.3907,8
7.78869,0.28146,0.343065,1.66942,0.0272373,31.4138,115.251,0.989985,3.00379,0.376992,12.0663,7
9.77946,0.254651,0.741577,9.81102,0.0556773,37.1132,228.389,0.997635,3.0503,0.438214,9.99879,4
5.92675,0.318092,0.188327,14.912,0.0427576,39.1996,117.607,0.996854,3.15226,0.442953,10.3821,5
7.36797,0.288835,0.402994,11.7171,0.0314932,13.0689,93.8452,0.996299,3.01658,0.465406,10.8089,4
5.71098,0.321819,0.304564,2.36984,0.0490675,25.6839,152.464,0.990569,3.43144,0.724631,12.1215,7
5.84642,0.315663,0.306986,2.63134,0.0504565,25.218,156.618,0.990482,3.44225,0.728808,12.3072,7
7.47848,0.328265,0.26101,1.65441,0.0483079,38.3538,175.201,0.993274,3.03434,0.515849,9.29781,5
6.78609,0.264171,0.317018,6.80536,0.0424371,37.3124,119.597,0.993757,3.25595,0.522372,10.7937,6
6.5789,0.258046,0.426571,11.2604,0.0485692,77.9974,231.864,0.996401,3.23488,0.53053,9.52797,6
7.71675,0.33921,0.290839,8.21258,0.047759,25.7108,188.307,0.995303,2.96061,0.474967,10.8245,5
6.6518,0.166137,0.214242,6.63445,0.0570137,43.499,156.408,0.994091,3.14218,0.52092,10.6957,6
6.17603,0.195695,0.328301,2.83674,0.0499169,16.4588,124.344,0.993742,3.17171,0.558711,9.43803,6
7.19839,0.167904,0.401063,1.83007,0.049651,24.7665,129.676,0.992188,3.18969,0.49725,10.8736,5
7.62598,0.174535,0.262979,4.36061,0.0506373,21.1781,97.5798,0.994176,3.06939,0.46463,9.52608,6
6.87339,0.397608,0.386356,8.76432,0.0537743,35.1807,149.363,0.995913,3.15752,0.492588,9.18602,5
7.71728,0.304203,0.364077,4.14337,0.0276565,15.5625,86.2363,0.991594,3.123,0.482415,11.9759,5
7.45051,0.201599,0.306803,14.2556,0.0449834,40.2661,192.3,0.998445,3.09321,0.497213,9.17781,6
8.29125,0.258633,0.415712,9.13529,0.0424257,42.4126,163.731,0.994787,3.09701,0.373232,12.0261,7
6.89972,0.277084,0.27844,12.4799,0.0414032,52.9052,139.985,0.995194,3.01978,0.562145,10.3706,6
7.0955,0.203476,0.287719,1.08758,0.0350942,45.2035,142.554,0.9933,3.12127,0.321679,9.83193,6
6.47431,0.158633,0.444742,1.13544,0.0521666,40.3614,123.952,0.990574,3.10986,0.747862,11.3081,7
7.60047,0.171322,0.713592,11.7929,0.0386653,53.9111,149.167,0.998297,3.04266,0.451526,8.79395,5
6.83605,0.255613,0.266541,4.0295,0.0309191,20.6,81.2976,0.990965,3.12045,0.386041,11.5335,6
7.24491,0.391788,0.636335,11.0756,0.0444954,55.6211,153.515,0.997212,3.08831,0.441647,8.7535,6
7.26251,0.309195,0.684297,10.3245,0.0416162,58.8764,158.806,0.997497,3.06497,0.448996,8.65027,5
6.26864,0.2719,0.385791,0.601753,0.0502935,6.60916,139.525,0.992479,3.43931,0.506841,10.4497,7
5.72588,0.219956,0.317983,2.17124,0.0342548,36.9588,109.69,0.989344,3.2554,0.587846,12.3261,6
4.93435,0.294489,0.534821,5.24724,0.034699,54.8902,157.474,0.989893,3.25801,0.337983,12.9314,8
6.42862,0.285041,0.332729,3.31727,0.0407837,29.95,120.052,0.990955,3.27825,0.477696,12.0199,7
8.51219,0.237642,0.317316,1.41513,0.0483663,58.7911,111.509,0.991642,3.08845,0.551804,10.969,6
6.27833,0.377712,0.368886,1.44071,0.0249326,11.4262,74.2973,0.988569,2.94928,0.389738,12.2944,6
7.91195,0.165994,0.31206,1.62689,0.0539566,47.342,149.348,0.99486,3.28847,0.747315,9.58652,6
6.7912,0.182271,0.275151,9.45868,0.0376187,28.5319,112.598,0.993953,3.1124,0.449032,10.9529,7
6.77742,0.212451,0.550967,14.5911,0.0529863,34.4552,157.533,0.997958,2.92399,0.443467,9.10503,5
6.32708,0.120714,0.415405,1.35149,0.0442732,62.5452,144.197,0.990416,3.12147,0.721153,11.1914,7
6.38164,0.306691,0.376755,2.54295,0.0359543,17.8808,99.5018,0.991322,3.16899,0.349138,11.1082,7
8.71264,0.27264,0.448964,5.94166,0.0212689,14.4103,51.3231,0.993267,3.00579,0.32694,11.0539,7
6.84611,0.702107,0.24833,3.5047,0.0489068,10.354,57.6318,0.995763,3.36209,0.525844,9.4591,4
8.48071,0.239799,0.398709,10.3135,0.0430851,19.5281,139.735,0.997474,3.1982,0.54143,10.0625,6
6.67554,0.329275,0.496715,1.70223,0.169041,19.8923,93.1142,0.991405,3.10463,0.503861,11.424,6
6.6359,0.160839,0.303233,1.72819,0.0349177,14.2285,77.889,0.991848,3.37506,0.428139,11.1273,6
8.05447,0.23605,0.266979,1.48574,0.0298389,36.6624,133.98,0.993304,3.44542,0.516354,10.4416,7
3.86991,0.230227,0.397839,4.33688,0.0289255,29.915,120.003,0.988758,3.56705,0.357879,12.737,8
6.505,0.212719,0.348936,5.50479,0.0438226,46.0001,195.975,0.993958,3.24259,0.502538,10.2041,6
6.03475,0.280176,0.266828,4.62446,0.0310159,55.7586,139.274,0.990463,3.15977,0.434429,12.4997,8
6.57877,0.176218,0.345163,2.26889,0.0290632,31.9337,78.9602,0.991201,3.21529,0.724128,11.4218,6
8.2126,0.402645,0.476144,13.568,0.042121,58.3324,170.472,0.998355,3.11462,0.519232,9.37728,5
5.30167,0.582468,0.0688254,6.8356,0.0429849,34.255,147.246,0.994813,3.32434,0.566754,9.72413,5
6.11089,0.32538,0.335456,10.9086,0.0355281,27.2952,100.741,0.995109,3.33588,0.518868,10.1395,6
6.04722,0.370342,0.382482,3.46189,0.0253889,20.7246,127.071,0.991025,3.37727,0.37917,11.3128,7
6.62948,0.275431,0.405789,1.22158,0.0522172,15.9259,141.226,0.995099,3.42622,0.466321,9.96179,6
6.60599,0.205605,0.296501,9.84395,0.0419529,63.6906,172.154,0.994769,3.07069,0.495803,10.0917,6
7.46411,0.287485,0.326315,14.5411,0.0627695,31.5464,197.704,0.997867,3.00848,0.448713,9.2203,5
6.62682,0.385901,0.216104,3.55859,0.0365932,16.9832,99.307,0.990152,3.2438,0.540745,13.0005,7
7.17475,0.201791,0.605851,15.7678,0.0419303,15.0594,102.923,0.998335,3.06307,0.36841,9.21076,6
7.34241,0.357835,0.327021,0.901144,0.0241236,27.4426,54.6471,0.99146,3.20108,0.326225,11.1514,6
7.28495,0.397504,0.278089,6.11437,0.0380455,24.5317,97.9109,0.99139,3.15837,0.58249,12.5831,7
8.59169,0.224732,0.402076,4.31665,0.0342227,16.6587,105.254,0.994504,3.14837,0.53679,9.73078,5
7.1526,0.228278,0.397376,2.17195,0.0341934,30.159,103.266,0.991181,3.25807,0.545023,12.2136,7
6.51693,0.185708,0.265808,1.09757,0.0408787,40.2241,139.328,0.994111,3.33937,0.719268,9.52954,6
5.61217,0.258752,0.00395306,10.7985,0.037725,13.4456,115.305,0.993137,3.44415,0.456409,12.4045,6
7.30671,0.183207,0.269986,13.6834,0.0576338,45.347,155.464,0.998254,2.93623,0.409672,8.69604,8
7.89597,0.369694,0.308206,2.87312,0.0359341,5.57106,25.6851,0.991142,3.20022,0.36186,11.9362,6
5.96464,0.191483,0.28276,1.2364,0.0476734,66.5847,149.931,0.991534,3.53886,0.59781,11.129,7
6.95243,0.281666,0.368292,9.378,0.0368275,15.748,78.9498,0.994793,3.04164,0.540423,11.1028,5
6.44924,0.241212,0.382194,0.957769,0.0266304,31.5605,90.6951,0.989025,3.24028,0.357724,12.3248,6
7.26174,0.178616,0.287087,1.14807,0.0447908,12.4644,144.821,0.991819,3.21456,0.477574,11.3626,7
5.76183,0.370029,0.494251,0.809974,0.127218,63.1486,180.939,0.991926,3.10023,0.443273,9.71038,5
6.49349,0.299854,0.312611,3.0008,0.0354977,38.4724,90.2109,0.990487,3.15353,0.58687,11.9938,6
6.20959,0.316958,0.152046,6.92514,0.0453053,29.3596,136.286,0.994672,3.17468,0.476748,9.63062,6
6.7388,0.184217,0.390527,1.35307,0.0376578,34.1389,108.975,0.99193,3.32952,0.592125,11.1615,7
7.1118,0.286732,0.491817,1.19524,0.0286811,32.6203,97.4081,0.989468,3.08709,0.331206,12.2185,6
5.83613,0.28273,0.342198,4.15651,0.0326146,38.8358,102.663,0.98963,3.38473,0.385412,12.8059,7
6.92607,0.296427,0.308015,10.9843,0.0374761,3.98656,27.0212,0.991907,3.07753,0.319728,12.6584,6
5.89149,0.197205,0.232926,1.48245,0.0367575,38.3898,94.7188,0.990071,3.36202,0.49134,11.8965,6
6.76831,0.234975,0.337082,5.47055,0.0377971,28.9621,104.394,0.991988,3.23495,0.46159,11.8181,6
6.54393,0.245643,0.31886,5.42677,0.0373036,16.1357,68.4599,0.991667,2.95349,0.516279,11.0544,6
6.93908,0.326594,0.220618,1.23276,0.0542095,36.8865,148.581,0.992837,3.12204,0.448697,9.2804,6
9.06514,0.31068,0.47851,6.76369,0.0434789,11.3173,71.3694,0.993451,2.90019,0.377541,11.5297,5
5.53605,0.288619,0.26072,0.634051,0.034123,40.192,102.217,0.99166,3.47261,0.560472,10.599,6
6.60373,0.309889,0.234248,1.6791,0.0609497,41.2592,209.799,0.995025,3.58942,0.512975,9.23458,5
7.09091,0.292402,0.305311,15.6944,0.0353824,57.1677,201.696,0.999352,3.30339,0.672471,8.95109,5
6.38686,0.24727,0.491439,5.80577,0.0538205,24.7942,119.669,0.994027,3.00904,0.980452,10.4042,6
6.93158,0.207197,0.285613,1.45102,0.0490301,36.3713,160.626,0.993498,3.19629,0.418579,9.11569,6
8.34638,0.242216,0.262654,2.67519,0.0311549,20.7518,160.561,0.991399,2.97722,0.674562,11.978,6
6.47695,0.246784,0.329678,7.91582,0.0373984,46.9029,203.23,0.995927,3.45567,0.536662,9.608,7
9.09175,0.333204,0.380613,1.72765,0.0624016,50.5849,346.676,0.99575,3.10814,0.710712,9.51716,5
8.50959,0.314755,0.352207,14.4736,0.0398108,46.8528,190.494,0.998317,3.07224,0.309546,9.99314,6
6.03807,0.289896,0.242495,3.94497,0.0380823,13.4158,91.2774,0.989301,2.95427,0.702341,13.1419,6
6.25733,0.254048,0.243583,8.16316,0.0564268,43.796,165.625,0.995953,3.24935,0.406565,9.05575,5
6.07559,0.401452,0.182334,9.07827,0.0511029,28.4786,258.485,0.996268,3.18442,0.503802,8.74536,5
6.65295,0.222089,0.289605,14.0103,0.0467608,39.4469,119.355,0.998313,3.06192,0.502431,9.12173,6
6.23426,0.270987,0.168503,1.54677,0.0289641,20.0017,111.775,0.99181,3.41467,0.498457,9.952,5
5.12081,0.159399,0.328589,0.705975,0.0279776,26.8049,76.1302,0.99177,3.24172,0.514691,10.1656,6
7.54606,0.195804,0.477053,17.3789,0.0522859,49.9781,186.079,0.999557,3.09429,0.618558,9.25275,5
6.25539,0.266459,0.506959,7.86463,0.0487997,33.6934,199.345,0.995696,3.15186,0.537279,9.54091,4
6.4383,0.182936,0.416833,14.2986,0.0379124,45.923,129.466,0.99677,3.28864,0.721536,10.289,7
6.80916,0.177046,0.322229,7.51669,0.046274,19.3112,108.239,0.995126,3.41122,0.437983,10.3836,6
6.15524,0.336964,0.307654,11.0868,0.0464587,28.0973,238.945,0.998219,3.1786,0.49212,8.62751,5
6.92082,0.186536,0.311642,7.30587,0.0409677,30.9748,131.655,0.994586,3.40114,0.388719,10.5236,6
5.69972,0.333891,0.323542,1.54455,0.0436042,27.5216,91.0265,0.989798,3.30836,0.485952,12.2974,6
7.06506,0.370101,0.396062,1.95121,0.0327139,27.8334,116.476,0.989576,3.20381,0.442469,13.5735,7
6.69379,0.284814,0.28078,2.8877,0.0113145,37.1303,97.5088,0.990717,3.25136,0.38242,11.7732,7
6.52256,0.229824,0.255026,16.5476,0.0497151,43.7528,137.71,1.00019,3.30352,0.369539,8.91132,5
7.10394,0.281308,0.444814,1.91348,0.0331539,31.7977,107.317,0.990622,3.25608,0.482096,12.232,7
8.35358,0.283407,0.292175,0.961642,0.0300374,2.78348,55.3628,0.990783,2.92081,0.313197,11.5147,4
6.38223,0.319742,0.497804,10.8857,0.0471194,56.6631,206.265,0.996978,3.08042,0.600186,9.39895,5
6.48268,0.242172,0.231323,1.66429,0.0448458,15.9337,59.6325,0.992864,3.17524,0.380824,9.81488,5
6.96684,0.388849,0.370121,9.14384,0.0516023,38.2689,146.55,0.995983,3.15432,0.4986,9.25366,5
7.07577,0.448822,0.343303,20.0241,0.0390157,12.1929,74.4962,0.997597,3.07678,0.374691,11.0245,6
4.52929,0.191147,0.211772,1.3056,0.0333388,89.9162,158.835,0.993302,3.32758,0.419984,7.93854,5
7.20151,0.514366,0.254203,10.0287,0.091515,33.6349,196.918,0.997873,3.39828,0.475636,9.03933,5
6.15964,0.202636,0.171917,1.43654,0.0493798,45.1775,129.01,0.991181,3.29651,0.42445,11.586,6
6.52132,0.36705,0.233564,2.02732,0.0652337,24.5495,118.732,0.994306,3.31767,0.542534,9.48661,5
6.32864,0.27171,0.172088,7.9643,0.0436723,59.3178,195.178,0.995691,3.2124,0.47057,9.43102,5
6.65203,0.205881,0.364943,2.52688,0.0336823,35.195,89.7289,0.991431,3.25353,0.490726,11.0943,7
7.94572,0.179658,0.49279,5.09295,0.0497853,35.3439,155.116,0.995362,3.18235,0.480593,10.6411,6
8.514,0.154131,0.49373,1.55688,0.032052,16.3983,120.677,0.993463,3.0243,0.406551,10.3481,6
6.86908,0.273941,0.279476,7.48355,0.038052,26.1517,92.6344,0.991604,3.23253,0.325473,12.4318,6
7.06768,0.0915435,0.300902,6.14953,0.0320143,24.147,130.799,0.992944,2.99075,0.395871,10.8928,6
8.28868,0.360653,0.570925,15.029,0.0531286,34.3105,254.607,0.999959,2.92492,0.638147,8.67919,5
5.8313,0.322118,0.198741,2.40242,0.0257314,17.1049,122.629,0.989604,3.36141,0.784216,13.9364,7
7.18453,0.263251,0.373799,5.09271,0.0268662,25.462,113.126,0.991795,3.14113,0.847382,12.6608,5
6.6365,0.252062,0.232333,6.81743,0.037497,61.4682,220.659,0.995072,3.12599,0.343553,9.44903,5
6.39615,0.319944,0.225659,16.1884,0.0534012,36.2128,174.242,0.998665,3.2654,0.538298,9.12603,5
6.80288,0.218818,0.315756,1.39153,0.0546945,32.4373,114.532,0.992933,3.38777,0.772422,10.6845,6
7.3446,0.206854,0.297674,10.9505,0.0373077,17.1115,113.793,0.997066,3.39625,0.490722,9.62478,6
6.23889,0.294628,0.214228,1.03237,0.0322917,30.2593,113.274,0.989002,2.96161,0.421483,12.1697,6
6.98334,0.261727,0.48809,1.52571,0.0580728,38.6633,164.675,0.996615,3.64553,0.522097,9.43229,4
7.34761,0.255217,0.360753,2.24481,0.0497725,31.8188,102.288,0.992183,3.18831,0.438355,10.8659,6
6.70667,0.186325,0.381769,0.682792,0.0344544,13.2398,68.5943,0.98894,3.30451,0.377415,12.9653,7
8.95172,0.266803,0.356881,4.8332,0.0265437,26.4038,92.1508,0.993296,3.04059,0.404738,11.2972,6
7.73183,0.438907,0.373027,10.228,0.168287,22.4274,208.744,0.997657,3.0308,0.638171,9.56728,5
6.22146,0.117682,0.256882,5.70928,0.0464883,56.826,158.909,0.995018,3.51596,0.368663,10.5058,6
7.18792,0.27184,0.738459,12.7276,0.0373441,46.1695,154.808,0.997926,3.04238,0.446041,8.72616,5
5.18352,0.28309,0.294875,1.61074,0.0281679,18.0218,68.8272,0.991667,3.23508,0.546247,9.95389,6
7.76997,0.293709,0.376732,0.940276,0.0513489,16.6635,96.0498,0.994116,3.32393,0.617976,9.88852,5
6.86248,0.256657,0.21929,7.76396,0.0462467,59.0564,211.491,0.996015,3.09542,0.469718,8.94752,5
6.45064,0.324299,0.243839,9.84722,0.0394265,28.8366,111.981,0.995629,3.28977,0.459296,10.1599,6
6.68302,0.254207,0.4899,8.11517,0.0466322,52.6841,188.024,0.995169,3.22286,0.398967,10.3406,6
6.02117,0.273495,0.526043,6.13671,0.0289576,37.2589,106.157,0.991521,3.26646,0.5083,11.8248,7
5.21409,0.362472,0.330905,0.827607,0.0296089,11.63,81.1586,0.990252,3.38207,0.385686,11.7303,6
7.39109,0.255514,0.353395,13.0037,0.0662175,53.1612,176.356,0.997591,3.00659,0.479339,8.93989,6
6.1796,0.194056,0.382069,6.55274,0.0342286,63.103,245.981,0.995172,3.06061,0.360814,9.34829,6
6.49017,0.313738,0.121978,11.3783,0.0344169,34.6178,165.802,0.997223,3.2286,0.328588,9.01275,5
6.85905,0.446922,0.284578,26.114,0.0311484,28.2753,119.742,1.00266,3.06553,0.43453,10.6437,6
6.81377,0.271487,0.275825,13.0804,0.0774108,50.2799,159.934,0.998168,3.03769,0.388146,8.62459,6
7.36987,0.230146,0.24531,1.06326,0.0495052,44.0968,140.225,0.993146,3.42306,0.539138,10.167,7
6.35864,0.589544,0.133246,5.702,0.0587997,14.8872,95.9917,0.995056,3.37637,0.353422,9.07598,4
6.50241,0.354852,0.282204,6.25736,0.0279036,11.6784,89.725,0.990581,3.17782,0.268734,12.7888,7
4.14481,0.208464,0.225299,5.28771,0.0394171,64.2266,154.948,0.996795,3.4182,0.443266,7.94734,3
6.78729,0.2585,0.442436,8.04115,0.0460914,50.9602,182.109,0.99596,3.2095,0.513082,9.32208,5
6.87591,0.283379,0.348011,7.89308,0.0447675,27.7453,123.305,0.992565,3.01432,0.375072,11.3295,6
6.00044,0.257053,0.490586,2.56189,0.0468125,58.1526,149.31,0.99296,3.08258,0.610487,9.75885,5
6.12317,0.274409,0.312944,0.982191,0.0350853,24.6558,112.771,0.989661,3.36072,0.391041,12.4802,6
6.39028,0.168199,0.312153,2.32767,0.0481237,40.8696,195.747,0.993574,3.51241,0.492115,9.67937,6
7.78771,0.188429,0.322832,7.34862,0.016383,47.6799,125.35,0.992827,2.98428,0.391428,11.1373,6
6.32063,0.31547,0.175282,17.0679,0.0608446,51.7729,191.538,0.999308,3.11817,0.470835,8.77532,6
5.35103,0.295036,0.198907,1.20282,0.0781901,49.2892,170.257,0.99426,3.27798,0.544211,8.70769,4
7.62206,0.201826,0.668673,13.1842,0.0422926,55.2431,160.364,0.998455,3.05196,0.404649,8.6846,5
7.42491,0.337113,0.25868,15.8402,0.0497992,66.8582,211.084,0.998842,3.06115,0.68248,9.53287,5
7.40418,0.185837,0.497328,6.6388,0.0368131,14.0791,112.139,0.993911,3.18637,0.3733,10.9646,7
6.71065,0.317762,0.301026,0.857806,0.0488445,21.8606,113.568,0.992762,3.24149,0.60401,10.1355,5
7.65154,0.16604,0.460384,0.717634,0.0364025,63.2701,144.141,0.991447,3.02241,0.405695,10.6993,6
7.05241,0.275984,0.277543,1.17916,0.0380757,11.1335,83.427,0.9919,3.18175,0.653885,11.1096,5
5.89925,0.288722,0.251771,1.63705,0.0326643,30.6023,117.601,0.987708,3.08524,0.436822,13.1529,6
7.37662,0.212483,0.268279,0.868167,0.0413258,26.9026,98.4944,0.99277,3.17606,0.331832,9.73265,6
6.30184,0.180475,0.225181,5.61172,0.0488445,44.8548,145.249,0.993966,3.07374,0.546978,10.0023,5
5.26004,0.150558,0.387926,0.814922,0.0278875,40.6132,102.375,0.991356,3.57932,0.589214,10.6201,6
6.89095,0.221514,0.321584,5.27023,0.039164,20.705,117.256,0.993188,3.15166,0.54794,11.3178,6
5.72581,0.273147,0.405561,0.91954,0.0764329,47.8658,129.842,0.991773,3.13308,0.436977,10.3276,6
6.68474,0.176822,0.239394,9.93338,0.0575092,64.1415,186.084,0.995028,3.11767,0.504456,10.6241,6
6.57553,0.397174,0.395481,11.9895,0.0579416,50.4873,220.321,0.998631,3.26249,0.512844,8.96989,6
6.90897,0.26007,0.377516,10.3893,0.0446916,33.1993,135.67,0.995042,3.05557,0.493181,10.2393,6
7.09826,0.395526,0.61424,11.191,0.0473876,66.9343,175.15,0.997508,3.15844,0.500972,8.82929,5
7.58228,0.303156,0.355749,1.67814,0.0854119,26.7253,179.434,0.994436,3.09321,0.495204,9.83768,5
7.19279,0.318705,0.41587,8.58874,0.0377107,45.6669,157.772,0.995441,3.19539,0.471136,10.3847,6
9.21058,0.703133,0.239917,6.60586,0.0432146,14.9576,95.4403,0.994791,2.87806,0.332036,9.99754,6
6.19481,0.182052,0.38787,1.81582,0.0284567,36.4084,116.798,0.992785,3.4722,0.536973,9.63453,6
7.12521,0.132697,0.294579,15.6051,0.0634876,55.8547,114.991,0.997467,3.15947,0.410806,9.72443,7
7.52829,0.22415,0.332651,2.1744,0.0434781,28.0575,101.024,0.991441,3.09573,0.60092,11.2793,7
7.29397,0.248684,0.374962,6.27808,0.0325341,9.01017,82.0148,0.994308,3.18092,0.456489,11.5168,5
6.7987,0.224091,0.418571,7.28286,0.044641,53.503,189.177,0.995701,3.20358,0.480272,9.34221,6
5.49116,0.141286,0.262153,4.47021,0.0292336,22.016,104.89,0.994841,3.32963,0.429961,9.07235,5
6.48095,0.226072,0.326062,11.5103,0.065656,57.7374,158.128,0.999245,3.60941,0.427297,8.97769,6
7.50075,0.139666,0.736412,1.56061,0.0412333,25.8436,105.672,0.99143,3.06591,0.398284,10.9488,7
6.72611,0.145084,0.356012,1.66233,0.0460282,39.6218,116.019,0.991011,3.06167,0.723944,11.1695,6
9.5454,0.285758,0.463715,1.27709,0.0391324,78.2742,226.397,0.99422,2.92301,0.460248,9.53027,6
6.2903,0.246955,0.732966,1.54598,0.172565,22.9599,108.549,0.99333,3.26608,0.382968,9.91256,6
7.08874,0.282,0.190176,7.61209,0.0390591,47.7708,184.207,0.995495,3.15787,0.505523,9.3496,5
5.664,0.238414,0.242309,7.96649,0.0433003,15.611,108.022,0.994913,3.44334,0.616344,10.2778,6
6.57638,0.157024,0.345873,1.0705,0.0364731,41.3319,116.189,0.99003,3.02476,0.681229,12.0535,6
7.23977,0.192252,0.3079,1.58589,0.0450184,36.7817,137.338,0.993606,3.33441,0.565109,10.2204,7
8.16076,0.332399,0.284767,5.81822,0.0774635,18.0365,91.5647,0.991116,2.95039,0.388794,12.443,6
6.11338,0.250644,0.303773,1.53823,0.0347443,40.1622,108.556,0.991305,3.33995,0.564211,10.7772,7
6.93464,0.190236,0.288042,5.29493,0.0581376,13.4024,147.033,0.995224,3.29222,0.363436,9.15046,6
6.80279,0.246236,0.342511,4.65421,0.0295905,36.4165,136.979,0.992576,3.21732,0.388073,10.5206,5
6.77645,0.180887,0.372359,1.40037,0.0259312,36.9953,98.367,0.992029,3.30136,0.44261,10.7782,6
9.89932,1.002,0.45563,1.45305,0.0463174,33.993,184.725,0.996568,3.02448,0.490945,10.192,4
5.62099,0.344278,0.377584,0.807616,0.0366014,5.58449,68.8623,0.990338,3.36633,0.3344,11.4459,5
6.51015,0.242881,0.262927,17.4207,0.045004,14.9133,110.866,0.998275,3.1521,0.4156,9.19578,6
6.0569,0.291346,0.442263,1.42897,0.0464991,15.7878,181.747,0.994623,3.50176,0.523903,10.5055,5
8.21648,0.370291,0.362824,1.14693,0.0340849,16.9394,92.2437,0.990751,3.04771,0.328774,11.6889,8
6.73145,0.22305,0.251073,1.49256,0.0367951,27.9993,144.958,0.992515,3.29811,0.547308,10.2852,6
6.93345,0.228498,0.332621,1.88347,0.0533799,16.2967,76.931,0.992917,3.2088,0.406081,10.5401,6
6.09116,0.207463,0.394666,1.98406,0.0269424,30.7927,139.841,0.991487,3.26596,0.721789,11.7623,5
6.36135,0.114823,0.496106,6.05415,0.0417093,48.3413,158.683,0.994362,3.34442,0.442136,10.3411,6
6.25567,0.278187,0.28321,4.47334,0.0248847,21.0553,106.884,0.989094,2.97723,0.635284,13.1549,8
6.80711,0.326058,0.293068,3.7731,0.0274238,14.816,80.0405,0.990602,3.31306,0.624853,12.5757,7
6.70935,0.178239,0.268353,10.4524,0.0391281,28.4158,112.244,0.994562,3.116,0.446354,10.8967,7
7.67912,0.271335,0.518403,3.60258,0.0425478,27.6267,151.151,0.991324,3.0288,0.534973,11.376,6
6.34297,0.134165,0.427938,0.981548,0.0421471,63.5795,146.484,0.99059,3.13805,0.725593,11.2515,7
6.05998,0.207714,0.382482,1.72384,0.037399,37.6596,123.794,0.989758,3.19957,0.432158,12.0502,6
4.8547,0.34674,0.344024,1.06889,0.0677874,32.3678,145.937,0.991436,3.24235,0.403521,10.0845,5
5.99249,0.274869,0.273143,9.08056,0.0498538,42.3206,135.294,0.993956,3.24503,0.5173,10.6983,6
6.52497,0.197365,0.325371,1.32946,0.0422776,30.1267,129.028,0.992396,3.376,0.537277,10.8,7
5.51443,0.167194,0.302912,1.02124,0.025762,30.6977,66.7386,0.98979,3.3307,0.435171,11.6939,6
6.6517,0.422702,0.228243,5.01565,0.156771,47.2814,147.547,0.994841,3.17185,0.493141,9.28884,5
6.52763,0.215236,0.503592,16.5003,0.0480618,35.8882,183.457,0.998979,3.02438,0.485672,8.74779,6
5.99672,0.283892,0.286321,19.3033,0.0531332,34.8014,177.638,0.998986,3.14374,0.497804,9.02294,5
5.08282,0.5254,0.0620138,2.79236,0.052295,30.8496,80.0987,0.993215,3.32585,0.427718,9.27514,5
6.9569,0.223605,0.318491,1.46322,0.0496145,25.7712,113.693,0.991536,3.11332,0.470623,11.0172,6
7.97967,0.227968,0.41419,1.50052,0.0484071,36.7264,152.461,0.991756,3.0884,0.479126,11.1911,5
6.24076,0.248851,0.483193,1.64042,0.0528279,34.0361,129.402,0.99268,2.98616,0.608992,9.79278,6
7.93927,0.272979,0.405911,5.01597,0.0578543,30.644,153.438,0.996744,3.26475,0.505918,9.7703,6
6.50309,0.128574,0.251698,1.59018,0.0408185,21.2817,130.906,0.99116,3.19817,0.444044,11.1696,7
7.75494,0.388099,0.276642,4.78536,0.0337178,35.2388,106.833,0.991711,3.17985,0.591316,12.2309,7
5.66343,0.268374,0.233197,17.4562,0.0579746,24.3459,124.74,0.997719,3.2941,0.498219,10.2048,5
5.67962,0.210013,0.237516,2.56038,0.045946,59.6071,184.753,0.995271,3.65098,0.724654,10.0041,6
6.81794,0.628691,0.0424934,1.69153,0.0576388,25.2241,136.646,0.992713,3.15673,0.389113,10.1727,4
6.19816,0.341611,0.320521,2.68691,0.038123,36.7096,92.5508,0.989336,3.25651,0.529724,12.8852,7
7.10884,0.318036,0.314321,10.2366,0.0418257,63.6726,190.905,0.996488,3.11892,0.493949,10.2305,6
7.05744,0.448631,0.369408,2.72564,0.0439236,35.1684,127.76,0.989624,3.06661,0.423853,13.3706,7
6.29798,0.211234,0.381121,6.94911,0.0363045,65.421,244.967,0.995059,3.06079,0.358296,9.38347,6
5.88988,0.179107,0.281984,1.25871,0.037546,23.7345,84.7562,0.99104,3.28151,0.546997,10.6281,7
6.89002,0.181011,0.353272,1.2355,0.0364373,41.3334,116.951,0.993316,3.26675,0.947218,9.59659,7
6.22851,0.338993,0.286617,7.70212,0.0328021,40.4568,199.97,0.995034,3.13254,0.602124,9.8156,5
7.38672,0.301554,0.227758,5.54223,0.0525094,33.4256,182.201,0.992684,3.13203,0.451493,11.596,6
6.626,0.304956,0.73749,4.40577,0.0408022,35.8278,157.557,0.994567,3.22001,0.444497,9.85886,5
6.22582,0.352612,0.258606,13.3032,0.0503525,54.5944,203.719,0.997054,3.24302,0.460083,9.02418,5
7.29819,0.244261,0.290492,2.41269,0.0378754,36.1394,101.315,0.991988,3.27553,0.638558,10.9765,7
6.12582,0.33404,0.138567,4.62771,0.0513975,26.8962,124.202,0.99458,3.21086,0.47466,9.46028,5
7.26493,0.318812,0.236259,13.9228,0.0516795,49.3896,198.022,0.99843,3.19731,0.467349,8.7479,5
7.27422,0.195794,0.439375,1.36032,0.0468133,20.3706,94.8448,0.992331,3.15325,0.455453,10.1268,7
7.0126,0.160485,0.380006,14.5795,0.044532,53.9003,118.759,0.997515,3.18086,0.422552,9.89251,5
5.86046,0.278139,0.384054,1.91428,0.0320097,46.5801,145.004,0.98857,3.0783,0.639765,12.8654,8
7.00524,0.185336,0.347115,1.34158,0.039793,31.4545,86.0722,0.989463,3.25394,0.369176,12.6765,8
7.03086,0.147351,0.342412,5.5361,0.0355184,34.2176,104.486,0.995281,3.35098,0.512714,9.32398,8
6.98161,0.260774,0.287192,15.331,0.0474165,41.1785,171.517,0.998401,3.22188,0.445991,9.34866,6
7.15378,0.281507,0.303516,1.77255,0.0531568,19.1676,96.5083,0.990818,3.1569,0.506578,11.4949,6
7.06872,0.318601,0.326834,14.5457,0.0405429,45.5854,149.516,0.994951,3.37887,0.498316,12.4871,7
6.10428,0.213796,0.489792,1.5774,0.0516121,17.3519,87.3481,0.992797,3.30504,0.459676,9.62383,6
6.6749,0.349011,0.45142,6.89217,0.0566606,29.4114,165.15,0.995022,3.15198,0.444925,9.4523,6
7.4415,0.332543,0.314188,11.1906,0.0363504,25.2367,117.827,0.996493,3.14588,0.337256,10.5162,5
6.54257,0.211666,0.361651,5.66757,0.0424294,46.3131,197.859,0.993797,3.2359,0.49461,10.0692,5
8.35108,0.215581,0.386946,14.5703,0.0542274,32.149,124.831,1.00034,3.21339,0.494675,9.80023,6
6.11718,0.67548,0.517486,1.37943,0.0365122,33.1798,118.052,0.990282,3.23606,0.453703,11.9613,5
7.4354,0.179894,0.235576,1.14273,0.0476344,20.6417,106.586,0.994001,3.51113,0.637493,10.4772,8
5.95321,0.176569,0.273537,4.80155,0.0394506,51.1161,138.122,0.991597,3.15481,0.444181,11.391,5
6.68525,0.345452,0.479948,9.11652,0.0556339,35.1893,165.973,0.996182,3.03239,0.476374,9.33695,6
6.543,0.247581,0.379643,8.34623,0.042453,55.8043,186.045,0.995825,3.20753,0.463753,9.20141,6
6.88256,0.178517,0.38106,8.40192,0.047996,44.2854,176.016,0.99578,3.30362,0.546822,9.80694,5
6.86487,0.278295,0.226822,10.1109,0.0518552,35.5568,129.919,0.996973,3.08674,0.449224,9.66597,6
6.02354,0.156404,0.296493,6.60688,0.0418058,42.0831,150.163,0.994993,3.63005,0.464609,10.6196,6
6.72402,0.257442,0.559041,11.8367,0.0425539,63.3526,229,0.996911,3.03347,0.631657,9.36692,6
8.65229,0.49602,0.285748,4.39064,0.027697,19.6279,102.355,0.991923,3.00527,0.383183,12.3548,6
6.45759,0.275216,0.276212,8.49281,0.046991,54.3301,210.42,0.996289,3.09182,0.541573,8.93327,4
6.78515,0.336039,0.354927,8.7321,0.0275034,42.9073,132.226,0.993045,3.282,0.348724,11.9877,8
5.89473,0.288709,0.294775,1.63979,0.0285626,36.8927,146.332,0.98909,3.40163,0.409577,12.9065,8
7.82803,0.225291,0.35512,1.40967,0.0559548,20.5763,154.435,0.992971,3.21109,0.529765,10.4036,5
7.5703,0.251206,0.334566,1.19254,0.0580011,34.0079,176.153,0.994004,3.10038,0.508007,9.40844,6
6.6032,0.251542,0.298169,12.6747,0.0601373,51.2561,178.681,0.998435,3.50249,0.468435,9.91134,5
7.04306,0.26016,0.303809,1.94625,0.0306697,12.7465,131.081,0.991782,3.19637,0.503646,11.3734,6
7.03182,0.281953,0.320632,7.55835,0.0317988,28.7413,113.359,0.991589,3.11408,0.641747,12.8327,8
8.36954,0.173169,0.30764,5.7128,0.0512041,47.8182,148.1,0.995125,3.23144,0.363997,9.71451,6
7.80767,0.154401,0.645828,17.2565,0.0490038,67.9385,209.995,1.00055,3.1632,0.510374,9.23242,8
6.66563,0.263216,0.224223,8.58006,0.0492965,55.2898,202.121,0.995558,3.24916,0.417022,10.1712,6
7.03215,0.14911,0.281482,14.8187,0.050574,28.5522,148.34,0.997983,2.95102,0.387502,8.96591,8
6.26304,0.400393,0.2378,5.03465,0.0381269,41.2287,134.8,0.991986,3.23896,0.435439,11.2989,5
6.80084,0.325447,0.432077,1.24306,0.0514374,4.23463,63.7483,0.993795,3.2754,0.460796,10.7061,6
6.55366,0.330263,0.30155,4.17815,0.0373325,34.7258,88.2571,0.990801,3.24376,0.63615,12.4301,8
7.15421,0.439984,0.225102,5.77207,0.0353547,22.9889,98.7777,0.990443,3.16178,0.582009,13.227,8
6.79354,0.356206,0.240515,4.36016,0.0388974,22.9357,124.192,0.990808,3.26462,0.338072,12.5289,8
6.23616,0.17234,0.225572,5.75662,0.0490614,45.1651,142.104,0.993917,3.09544,0.541213,10.0207,6
8.00642,0.431074,0.427954,7.50448,0.0338254,34.8621,140.817,0.991484,2.98788,0.385511,13.3136,8
6.34736,0.282636,0.579311,0.889113,0.0623388,14.4051,119.882,0.992509,3.0598,0.414434,9.56568,6
6.72473,0.467692,0.29942,4.80873,0.0343207,28.7631,131.339,0.990591,3.28867,0.449788,12.9982,8
7.25515,0.582151,0.203896,10.5415,0.0849176,17.6106,92.497,0.9968,3.13172,0.395117,9.34152,6
5.92746,0.366684,0.302708,1.65214,0.0337848,36.4551,95.9576,0.989669,3.36346,0.55706,11.9655,8
6.85396,0.183912,0.330114,1.49289,0.043771,62.7915,149.302,0.992573,3.43767,0.524167,10.7207,6
6.14141,0.406305,0.216127,2.10918,0.0218911,5.48075,54.4047,0.989304,3.03616,0.789322,13.0139,8
6.28865,0.208957,0.562669,9.71942,0.0792441,34.8349,129.162,0.996169,2.95071,0.460518,8.83943,6
6.60459,0.212439,0.306335,10.869,0.0384095,46.8391,167.592,0.997962,3.40806,0.431876,9.88769,8
7.42332,0.191331,0.48618,7.03688,0.0360881,14.6598,111.098,0.993698,3.20801,0.391277,11.0188,8
6.54858,0.218929,0.244244,17.1698,0.0486116,44.2299,137.732,1.00034,3.29355,0.371083,8.81802,6
7.1904,0.408961,0.520524,1.57274,0.148808,45.6148,147.69,0.994761,3.0798,0.5611,8.70567,6
8.24238,0.191926,0.497567,1.37835,0.0386538,34.9592,167.501,0.993827,3.04219,0.377269,10.0897,6
6.43944,0.295851,0.209997,10.0766,0.0419596,36.2838,117.503,0.993255,2.98538,0.33554,10.9863,5
6.75871,0.222075,0.315182,2.98501,0.047796,38.8193,123.142,0.991251,3.06606,0.634866,10.9304,8
5.67955,0.283587,0.30167,3.94066,0.0263506,34.8063,103.961,0.989969,3.23826,0.574377,12.7082,5
6.67773,0.153207,0.364997,1.45842,0.0374522,44.0794,127.086,0.989513,3.18573,0.507334,12.4029,8
6.41925,0.31686,0.265796,4.78426,0.0356617,19.0283,121.369,0.991565,3.35488,0.705302,12.5322,5
6.65919,0.382736,0.286879,2.65573,0.0437596,18.16,65.8841,0.989402,3.21478,0.466632,13.3099,5
7.28586,0.183476,0.654801,1.33069,0.0466832,28.0986,160.179,0.994309,3.33172,0.617579,9.36601,5
7.00931,0.246062,0.295096,12.6556,0.0332294,70.9038,173.298,0.995646,2.98492,0.572221,10.3769,5
6.93642,0.280732,0.365851,9.53235,0.0347473,15.9629,78.0207,0.994757,3.0539,0.544156,11.0607,6
6.5492,0.242331,0.317111,7.50469,0.0379828,48.9544,201.79,0.995855,3.46434,0.538138,9.72299,8
5.92352,0.2217,0.334872,12.0195,0.032487,25.6956,99.8711,0.993736,3.17878,0.421225,11.2686,8
6.61575,0.174799,0.275233,10.1833,0.0375272,28.3126,116.184,0.994747,3.11412,0.444495,10.9857,8
6.37966,0.205441,0.336538,15.5891,0.0414773,54.9011,139.499,0.996969,3.10899,0.375282,10.6418,6
7.27809,0.276194,0.434207,1.33603,0.0334205,29.1628,141.794,0.991721,3.17815,0.425101,10.7536,4
6.53619,0.269814,0.334492,3.05674,0.0409636,29.5446,122.941,0.991198,3.27666,0.477315,12.1025,8
6.71163,0.411806,0.233173,5.00806,0.0342104,34.8302,114.27,0.99029,3.113,0.439105,12.9397,8
7.08426,0.0847175,0.300912,5.95279,0.0329828,22.5748,135.035,0.992967,2.99802,0.385436,10.9453,5
7.59864,0.30577,0.487498,4.38489,0.0421615,27.0707,128.536,0.9912,3.07828,0.661018,12.7537,8
6.60884,0.344734,0.242074,3.54414,0.0341071,29.631,98.2083,0.990419,3.09038,0.409806,12.3819,8
6.06665,0.35705,0.396231,3.01541,0.0270467,20.1319,122.118,0.990891,3.38548,0.391988,11.2603,8
6.67429,0.224035,0.265139,1.18975,0.0601987,33.2986,156.653,0.99323,3.24198,0.559135,9.55694,5
6.71546,0.399111,0.237295,5.06469,0.0330774,32.7485,115.011,0.990199,3.11405,0.444589,12.9628,8
6.6786,0.904219,0.179769,0.540139,0.0497226,15.17,203.813,0.993338,3.33776,0.549677,10.0302,6
6.55668,0.13771,0.355571,0.985575,0.0379136,47.9749,114.378,0.991049,3.40994,0.504982,11.4154,7
5.2954,0.583903,0.0696069,7.12185,0.0448769,34.0473,146.797,0.99458,3.34226,0.571467,9.70791,5
9.82751,0.306614,0.487785,15.3036,0.0463876,13.6583,122.419,1.00014,3.18827,0.443772,9.47405,6
6.48497,0.456346,0.320408,5.22464,0.0275737,14.3416,69.1862,0.991662,3.24634,0.602368,11.6101,8
7.03932,0.440945,0.370748,2.56988,0.0407939,33.9348,128.532,0.98947,3.06473,0.423009,13.5141,8
6.78608,0.271622,0.234518,4.2934,0.0985681,36.7852,128.616,0.9942,3.15196,0.494636,9.58727,5
6.98488,0.32217,0.345429,0.90249,0.0416709,19.6741,68.4528,0.991288,3.30826,0.644098,12.0333,8
6.79433,0.264704,0.255743,3.64322,0.0782034,36.5247,216.429,0.99544,3.30407,0.674942,9.5555,6
5.95506,0.27922,0.273541,15.5773,0.0364976,30.3756,132.18,0.994087,3.19762,0.440236,12.9949,8
7.86944,0.260719,0.327774,11.0216,0.0391847,72.9495,211.597,0.996809,2.92439,0.488005,9.47047,5
6.98295,0.441638,0.241151,12.1105,0.0577413,67.7567,207.1,0.996977,3.03679,0.504888,9.52138,6
6.01259,0.264687,0.247026,0.750661,0.0533533,65.2187,151.248,0.992584,3.20825,0.62771,10.3078,5
6.68855,0.211465,0.356731,8.3777,0.0176052,21.508,85.4723,0.991386,3.19012,0.225018,13.4017,8
5.79597,0.248054,0.261482,13.3071,0.0501548,43.3438,145.726,0.997036,3.29787,0.368937,9.24081,6
5.45527,0.208769,0.150539,12.5459,0.0508624,31.8774,111.799,0.995628,3.39011,0.374611,10.8819,5
7.29479,0.215877,0.406831,14.5426,0.0422782,44.3061,125.412,0.99976,3.35207,0.40679,8.94092,8
6.94874,0.19195,0.346445,7.12679,0.0454207,49.2376,122.452,0.993196,3.10294,0.445925,10.7114,8
5.92581,0.258004,0.29055,2.85682,0.0409756,36.7418,143.78,0.989631,3.22515,0.382366,12.7254,8
6.71458,0.182252,0.369097,1.67606,0.0257204,39.9224,124.365,0.989448,3.24091,0.372868,12.7128,8
7.0049,0.341732,0.0983786,3.64504,0.0453483,17.7381,64.5315,0.993645,3.00571,0.391554,9.33503,6
6.05886,0.241647,0.293206,1.9951,0.0340245,28.5676,91.2874,0.992164,3.38959,0.695525,10.8246,8
7.15487,0.266529,0.283955,10.5803,0.0414937,26.7825,111.911,0.993315,3.04575,0.51599,11.6285,8
7.90672,0.186896,0.333032,1.00899,0.0339463,21.0196,67.6646,0.99244,3.12127,0.381734,10.3686,8
7.66147,0.291847,0.41827,14.9832,0.0463456,45.5659,211.532,0.999031,3.17655,0.631411,9.19594,6
6.04783,0.268219,0.17818,6.73314,0.0552353,49.4846,191.666,0.996075,3.19782,0.421527,8.9279,6
6.75725,0.483142,0.482608,3.09914,0.0311824,27.3156,121.925,0.989306,3.12979,0.403187,12.9494,5
8.23393,0.283202,0.419204,1.77188,0.0319748,29.6946,95.8964,0.991333,3.09405,0.389544,11.5149,6
6.63188,0.189488,0.391284,0.675565,0.0315473,13.3361,73.1175,0.989058,3.31299,0.384137,12.9724,8
7.04812,0.397466,0.20975,11.3563,0.0982254,15.1834,90.4268,0.996487,3.02206,0.472237,9.25516,6
6.60543,0.377741,0.151349,5.20324,0.0431575,25.8038,82.8768,0.993055,3.12804,0.384062,10.3461,5
7.42793,0.162427,0.269979,15.7246,0.0501518,24.2729,133.583,0.998243,2.90166,0.423346,8.63965,8
5.55808,0.347094,0.362325,0.969907,0.0383969,6.55682,75.6389,0.990143,3.376,0.334801,11.4149,6
6.04981,0.278346,0.297539,15.0135,0.0445589,13.0463,144.546,0.99663,3.11727,0.531424,10.2862,5
7.53801,0.186071,0.30832,11.8544,0.0496824,23.8969,92.9415,0.996596,3.19194,0.43624,9.55546,8
7.81391,0.271265,0.316894,9.52095,0.036489,34.91,115.826,0.995289,3.17683,0.391932,10.3252,8
8.16685,0.260947,0.328647,2.62516,0.0520043,11.0724,70.4913,0.994015,2.88198,0.481773,9.54205,6
5.60821,0.247764,0.576151,10.7785,0.0557195,66.2364,168.29,0.994442,3.25022,0.60536,10.3894,8
5.50864,0.491387,-0.000676954,1.47608,0.0640066,9.22713,102.577,0.994288,3.63719,0.41065,9.72936,4
7.44371,0.268079,0.263157,11.5814,0.0537093,55.7266,170.178,0.996918,3.10593,0.599292,9.80299,6
6.16981,0.29369,0.473266,1.30488,0.0496597,50.0093,187.05,0.992635,3.19421,0.448332,9.53545,6
6.8897,0.283699,0.319439,7.04244,0.0419428,46.8394,167.627,0.994647,3.27646,0.56595,10.5933,8
6.58248,0.355586,0.281813,6.3103,0.0300417,13.8836,92.0625,0.990484,3.17382,0.279212,12.8005,8
6.53582,0.261165,0.731675,13.3903,0.0440122,69.8192,223.891,0.997201,3.17977,0.540061,9.54853,5
6.893,0.343823,0.368152,1.00824,0.0316369,13.4509,142.99,0.992019,3.07287,0.512493,9.87158,6
7.83592,0.256378,0.300173,3.30515,0.0261247,21.4497,105.492,0.990349,2.99566,0.471976,12.0835,8
7.93141,0.261121,0.251656,19.0917,0.0457236,50.7723,205.739,1.00052,3.04424,0.49825,9.191,5
7.06962,0.252128,0.381851,2.12357,0.0344804,29.5021,122.131,0.990727,3.2676,0.426915,12.194,7
5.33771,0.21147,0.293545,0.285065,0.028782,10.9967,67.7586,0.992219,3.29607,0.400528,9.87774,6
6.16203,0.470004,0.212376,1.33466,0.0445986,13.4812,96.5842,0.993587,3.13639,0.467341,9.26898,6
6.06161,0.345764,0.311831,12.3917,0.0548708,45.7051,242.216,0.997656,3.15754,0.47943,8.59273,6
5.52357,0.487758,0.136354,4.80734,0.0387234,16.7825,114.862,0.990817,3.42915,0.901241,13.6238,8
7.47413,0.192536,0.298714,12.8591,0.0537449,48.6808,231.531,0.99863,3.14654,0.488918,9.04906,8
8.04161,0.218187,0.423035,14.8634,0.0439044,44.7643,163.374,1.00026,3.21299,0.693,8.6486,8
6.77715,0.176867,0.284142,10.228,0.0392326,30.1572,109.701,0.993976,3.11071,0.455839,10.9414,8
6.60102,0.247698,0.355043,14.0463,0.0687944,42.4211,166.347,0.998911,3.5692,0.468636,9.69914,6
5.56129,0.262962,0.171164,1.42683,0.0335408,16.8899,139.852,0.991865,3.32409,0.347627,10.2645,5
8.15148,0.341195,0.494769,8.4335,0.0456852,55.8343,219.046,0.995771,3.07648,0.528916,10.6923,5
6.13259,0.219578,0.228198,3.00737,0.0523532,14.1577,103.874,0.994808,3.15434,0.426642,8.7704,6
6.26852,0.125154,0.415219,1.13309,0.0412405,61.5954,149.597,0.990759,3.12595,0.728559,11.2021,8
3.8469,0.222423,0.396019,4.06001,0.0284018,28.2107,116.66,0.988883,3.56947,0.360893,12.8457,7
6.03133,0.282303,0.242634,1.58853,0.0414331,7.7695,102.751,0.992838,3.08476,0.554342,9.02531,6
7.69878,0.437174,0.239905,10.8505,0.0291993,40.2537,166.495,0.994601,3.11686,0.436893,11.3633,8
7.14136,0.534788,0.253743,1.04289,0.0288782,29.9183,86.2296,0.993009,3.16277,0.322584,9.08404,4
6.87267,0.220683,0.328879,5.58873,0.0429415,21.4604,118.942,0.992846,3.17624,0.551473,11.1762,5
6.41196,0.309435,0.277321,1.58753,0.0362146,11.3072,114.937,0.991672,3.31855,0.514694,10.4467,8
6.55308,0.392901,0.22245,4.97003,0.0507853,25.2828,149.853,0.993284,3.23042,0.35237,10.0621,6
7.51597,0.181752,0.390706,1.50735,0.0552341,24.6975,94.179,0.994443,3.28198,0.452487,10.2565,5
8.16394,0.261328,0.329639,2.48738,0.0520339,10.8604,68.5941,0.994169,2.89683,0.489608,9.52735,6
6.94917,0.192672,0.316332,19.4539,0.046208,38.0775,168.828,0.999567,2.92429,0.517553,9.11863,8
6.50506,0.287719,0.313857,1.79266,0.0362287,23.5442,78.8523,0.990396,3.27139,0.695556,11.4077,8
6.4013,0.164174,0.440985,1.15231,0.0513783,37.4754,122.012,0.990401,3.11728,0.753256,11.2445,8
7.07981,0.250086,0.280302,1.13198,0.0401443,30.9765,113.747,0.991646,3.17014,0.519715,11.065,6
6.80841,0.179157,0.278509,10.1364,0.039777,29.5204,110.264,0.99427,3.1088,0.445368,10.9369,8
6.4499,0.213734,0.49804,11.7186,0.0442243,45.2321,154.763,0.997075,3.14373,0.43143,8.76397,6
7.17052,0.231862,0.389801,13.8111,0.0572045,51.0787,187.908,0.997834,2.9777,0.481702,8.95382,8
6.87557,0.300221,0.213216,15.586,0.0556411,48.1862,158.583,0.998043,3.11511,0.488287,9.06933,6
6.86588,0.268462,0.267808,16.3236,0.0485812,56.7182,191.68,0.998437,3.1534,0.499357,9.28463,6
6.5206,0.18352,0.331465,1.3538,0.0285122,34.0261,138.326,0.991201,3.35734,0.590665,11.5199,8
7.98424,0.317873,0.254565,0.696871,0.0493891,10.8415,88.0825,0.994693,3.23235,0.366572,9.41368,4
7.68028,0.298587,0.243912,2.13895,0.0696047,26.3768,135.699,0.993848,3.10949,0.62106,9.82712,6
6.7023,0.333884,0.255761,1.73185,0.0392893,57.3556,138.276,0.98942,3.00806,0.465608,12.2765,8
8.19311,0.257491,0.339146,2.2019,0.0544109,11.3283,72.0634,0.994271,2.89334,0.49569,9.46018,6
7.16643,0.206506,0.358378,2.48491,0.0283316,23.2182,103.489,0.990456,3.15351,0.376163,11.3303,8
6.41924,0.278615,0.435006,6.74833,0.0492299,47.992,177.588,0.995412,3.15398,0.48216,9.13061,6
7.41552,0.280368,0.395653,11.9498,0.0325365,10.7865,92.2527,0.996304,3.01289,0.459734,10.7502,4
6.29198,0.271958,0.232368,3.08688,0.0473458,12.8762,96.3074,0.993667,3.28106,0.43938,9.74358,6
6.73089,0.109169,0.35776,2.64157,0.0385272,42.8778,122.075,0.992123,3.07749,0.672298,10.1513,8
6.10688,0.222741,0.3772,3.18267,0.144203,10.9425,67.0068,0.990699,2.93766,0.635601,11.5101,5
7.46054,0.334019,0.253703,2.36996,0.0404684,28.4985,119.305,0.99153,3.09253,0.523567,11.7436,8
5.79073,0.431508,0.299286,5.79798,0.0390299,25.7488,98.4724,0.991946,3.53423,0.612578,12.2866,8
6.43162,0.364526,0.119125,5.86405,0.0537554,5.93331,93.7439,0.994959,3.0503,0.459777,8.35484,4
7.7343,0.281437,0.296628,0.875324,0.0400801,18.6473,77.4104,0.992061,3.02207,0.555088,10.7341,6
6.40675,0.285129,0.298265,1.70888,0.0522684,32.1003,127.916,0.992675,3.47754,0.554408,10.4938,8
6.42273,0.462331,0.0847572,4.63728,0.0456248,35.1991,143.508,0.994347,3.08804,0.555356,9.96586,6
6.07244,0.315716,0.238853,1.23918,0.0371021,37.2869,124.652,0.989813,3.29267,0.41422,12.5287,8
6.65038,0.271227,0.249735,7.86302,0.0541586,54.6461,200.253,0.996168,3.2274,0.433222,9.26756,6
7.16605,0.313223,0.367538,2.20407,0.0337703,37.2374,112.662,0.99057,3.09914,0.710656,12.2774,8
10.0148,0.903639,0.430149,1.74244,0.0549928,33.5619,180.608,0.996772,3.10676,0.452081,9.9085,4
6.06206,0.278716,0.241613,19.8215,0.0734103,33.7018,172.651,0.999161,3.20166,0.444745,9.32984,5
6.97104,0.323815,0.317094,6.51491,0.0303563,36.7901,117.83,0.992396,3.38014,0.582186,12.2388,8
6.93593,0.257416,0.486348,1.28784,0.0575271,39.5141,168.353,0.996754,3.64863,0.527704,9.32254,4
6.23958,0.224445,0.336915,4.87212,0.0318055,35.9102,90.7951,0.99019,3.27068,0.357405,13.5121,8
6.56316,0.304094,0.28053,4.00289,0.0382336,36.9679,97.9493,0.990488,3.19912,0.600884,12.5226,7
7.22781,0.260034,0.397229,5.98953,0.0459915,51.8305,176.679,0.995663,3.19701,0.525602,9.46847,5
5.13587,0.322399,0.21516,1.70354,0.026089,17.5795,93.6355,0.989121,3.50639,0.376717,12.3773,8
5.01627,0.301839,0.122534,1.70953,0.0352564,17.4377,72.9074,0.990028,3.42632,0.512245,12.2382,6
6.71927,0.210422,0.361212,8.69806,0.0203461,19.1297,85.3756,0.991401,3.1726,0.214987,13.3672,8
6.93488,0.337168,0.261307,5.05698,0.027443,46.0395,143.127,0.992393,3.25121,0.439947,11.2277,8
7.94903,0.332871,0.310033,4.78329,0.0407295,29.4594,178.877,0.991791,2.92504,0.741351,12.2786,5
6.15472,0.21614,0.400562,1.91061,0.0295558,24.9018,108.71,0.98966,3.02003,0.311478,11.7852,8
7.45373,0.217684,0.277368,7.62349,0.0308721,41.7438,146.63,0.99305,3.13883,0.385044,11.7512,8
7.68957,0.155517,0.39971,1.4797,0.0494941,59.8599,173.23,0.992946,3.24328,0.666921,11.2,8
7.20691,0.151411,0.392323,1.43725,0.0436231,20.778,158.296,0.994595,3.51659,0.46838,10.0319,6
5.95463,0.292345,0.277263,2.24531,0.0428758,19.4631,116.57,0.989313,3.30231,0.402325,12.761,8
6.51506,0.258283,0.391004,1.80063,0.0196147,12.1341,67.1065,0.990697,3.26212,0.75446,11.3245,8
6.04399,0.280575,0.514717,6.15442,0.0270541,36.924,102.816,0.991881,3.28487,0.501161,11.7761,8
6.76519,0.205593,0.268584,17.9944,0.0404427,41.2026,149.606,1.00009,3.3098,0.364933,8.62308,6
6.61266,0.201142,0.290305,5.03294,0.0304648,42.0558,104.954,0.991093,2.92377,0.426407,11.4833,8
6.60084,0.270523,0.490755,7.65341,0.0498247,62.671,219.26,0.995875,3.172,0.447932,9.41243,5
7.03611,0.364545,0.347741,2.45991,0.0479172,66.5654,162.374,0.991767,3.04722,0.566331,11.2425,5
7.6172,0.281924,0.491212,20.1429,0.0582055,29.0487,146.673,1.00185,3.00622,0.44281,8.55676,6
6.50855,0.304381,0.320602,2.00248,0.0430756,34.258,88.507,0.991933,3.36754,0.667579,10.9776,8
6.4575,0.232531,0.361903,2.26495,0.0274268,36.6439,136.427,0.989588,3.29475,0.360682,12.4419,8
5.87809,0.420319,0.364114,2.26114,0.0342602,18.3581,75.3114,0.992099,3.24304,0.472004,10.9733,6
6.79253,0.181034,0.35054,5.30508,0.0556721,52.3349,141.635,0.992647,3.09119,0.535335,11.0278,8
7.57845,0.479857,0.308446,9.50925,0.0454073,6.44267,192.412,0.996896,3.07068,0.609752,9.42175,6
5.26485,0.258131,0.227234,4.95634,0.0343671,48.2774,164.373,0.995237,3.82,0.510204,10.5789,8
7.58778,0.375615,0.190557,3.31398,0.0451123,9.0682,116.691,0.994425,3.13208,0.42016,9.46102,6
6.69689,0.475726,0.323431,1.08568,0.0205956,21.3689,120.616,0.98887,3.14756,0.529899,12.6523,8
6.57387,0.435303,0.318841,3.00411,0.092358,12.3754,71.5307,0.989303,3.09129,0.630732,12.7282,5
8.26351,0.246476,0.335019,2.41253,0.0525507,10.9133,67.5874,0.994197,2.89078,0.466518,9.4948,6
7.06323,0.460286,0.4019,6.11229,0.0400104,44.2895,163.488,0.992656,3.20607,0.352194,12.1767,8
6.16398,0.31166,0.215351,5.71905,0.0422973,51.0718,216.682,0.994103,3.14328,0.602506,9.99251,6
6.27587,0.119604,0.358711,2.04561,0.0442433,45.8791,148.026,0.991313,3.25538,0.738287,11.3659,8
7.47212,0.16697,0.33242,1.16007,0.0407215,46.414,121.361,0.992034,3.03489,0.682332,10.5055,8
7.48202,0.160821,0.318785,7.1476,0.057419,31.309,130.932,0.995249,3.28386,0.339815,9.66427,6
7.90474,0.341029,0.510407,15.1479,0.0461785,54.4045,166.997,0.998788,3.08201,0.519005,9.10109,6
7.10491,0.218094,0.322365,16.8082,0.0569264,49.1112,154.826,0.999634,3.37158,0.383308,9.48006,5
7.55777,0.390157,0.26531,5.31837,0.0296319,33.9305,103.292,0.991622,3.22788,0.625125,12.3759,8
7.89533,0.222791,0.367549,7.99575,0.0435907,45.9015,155.224,0.993372,3.112,0.324331,11.445,8
7.50306,0.320372,0.240446,4.44708,0.0512386,7.09658,135.449,0.996024,3.13452,0.500886,9.13982,3
6.03349,0.149198,0.30266,6.74518,0.0441864,42.4115,153.299,0.995042,3.62952,0.459983,10.5218,6
5.68125,0.458113,0.455861,1.41243,0.0385296,31.4334,171.015,0.993131,3.12642,0.457228,8.7172,6
7.86311,0.28947,0.361544,7.2333,0.0435562,37.5543,162.902,0.9939,3.26117,0.370908,11.1874,7
7.66201,0.314094,0.350891,1.30854,0.0915316,25.1854,139.853,0.994154,3.18175,0.433299,9.76989,6
6.11789,0.408752,0.141269,10.026,0.0367092,17.5002,117.58,0.996164,3.37438,0.45508,10.0249,6
6.29944,0.241596,0.286655,13.818,0.0365152,53.0574,133.235,0.995674,3.17386,0.383702,10.7415,5
7.38545,0.152128,0.307428,13.4324,0.0565132,32.0076,170.804,0.998355,2.89356,0.444111,8.69295,8
6.36851,0.622025,0.111254,4.71046,0.0591015,33.611,197.298,0.995431,3.2125,0.469145,8.72099,6
4.67148,0.671808,0.0880011,1.22651,0.0210283,6.33769,7.07937,0.987358,3.30006,0.352766,13.5742,6
6.7352,0.218044,0.253837,1.46579,0.0415964,29.123,180.946,0.990813,3.03893,0.359829,11.2394,6
7.37278,0.198733,0.269654,14.1745,0.0585575,44.4721,155.899,0.998046,2.92811,0.412585,8.80819,7
5.80211,0.13599,0.14096,5.96665,0.0427329,27.8823,124.959,0.99364,3.05105,0.60119,9.97272,5
6.8258,0.273636,0.4302,11.5317,0.0406684,55.6354,223.929,0.996898,3.2189,0.564688,9.41434,6
6.14095,0.386058,0.143137,3.78396,0.0597358,27.6559,111.088,0.993623,3.06574,0.336902,9.13459,4
7.09712,0.272279,0.279394,8.05412,0.0288735,25.4908,188.733,0.993682,3.15793,0.461073,12.282,8
6.88048,0.335613,0.254511,4.84478,0.0283536,46.9414,141.579,0.992177,3.24667,0.423652,11.2224,8
6.45745,0.319251,0.227309,8.12484,0.0508823,20.4175,140.11,0.994182,3.03248,0.415639,10.7788,6
7.91316,0.298614,0.586528,2.18096,0.0476986,12.8518,109.387,0.993261,3.22711,0.489129,11.9492,6
6.84186,0.240448,0.498023,1.07409,0.031272,35.2467,145.113,0.993348,3.45722,0.575514,10.7961,8
6.99716,0.245383,0.341538,2.70292,0.0358364,35.4005,97.9749,0.99064,3.17803,0.440206,12.1495,5
6.31834,0.212993,0.284962,2.45609,0.041556,39.1797,100.448,0.989877,3.13747,0.369193,11.5401,8
7.62818,0.305994,0.493008,4.13541,0.0439173,26.6942,129.011,0.991104,3.0899,0.66592,12.7844,8
5.78901,0.288243,0.335195,3.8939,0.0301873,39.3965,96.1472,0.989627,3.3985,0.394265,12.798,8
6.84423,0.259656,0.258408,10.0856,0.0402633,37.584,182.844,0.997802,3.47135,0.582191,10.2271,8
6.81023,0.177999,0.340158,5.57702,0.0555512,53.8098,141.749,0.99309,3.08823,0.543767,11.0474,8
7.47643,0.18818,0.298551,1.27935,0.0560939,38.079,164.557,0.993054,3.15728,0.527067,9.91163,8
7.62532,0.116512,0.340896,14.5193,0.0403719,41.2752,115.624,0.996493,3.07363,0.596859,11.0275,8
6.68248,0.176203,0.279777,10.1821,0.039544,29.2935,114.021,0.994594,3.12493,0.44916,10.8245,8
8.17586,0.381006,0.478536,13.5118,0.0434078,57.7868,166.286,0.998457,3.10284,0.541818,9.45716,6
6.45021,0.151708,0.29686,1.59933,0.0460257,20.1482,118.637,0.991479,3.10793,0.382974,10.2248,6
6.62012,0.230495,0.235268,4.16865,0.0449836,35.8976,139.383,0.992356,3.1491,0.632146,11.2898,8
7.35218,0.216713,0.3103,2.3095,0.0197109,45.6602,75.155,0.989223,3.0625,0.340292,12.9918,8
6.00224,0.255478,0.323307,3.69296,0.0276425,30.5973,114.889,0.990904,3.38322,0.71112,12.2403,8
6.94667,0.310557,0.482706,7.31444,0.0568809,24.8038,156.221,0.996004,3.43679,0.62869,10.9583,8
9.16578,0.338112,0.279388,1.21086,0.027049,16.1061,71.9197,0.99225,3.08059,0.389745,10.7482,6
7.98894,0.434078,0.425587,6.82755,0.0332165,34.76,140.463,0.991825,2.97692,0.398361,13.2186,8
7.90284,0.437473,0.281436,10.59,0.052219,26.0423,155.304,0.995423,3.06251,0.47245,11.3583,8
6.8478,0.153931,0.405877,2.19489,0.0352799,19.6192,101.317,0.992224,3.48156,0.41711,11.3253,8
8.07633,0.450285,0.277983,10.4763,0.0514327,25.2634,157.52,0.995639,3.05021,0.465267,11.2888,8
5.90484,0.37074,0.30475,1.21003,0.0336495,35.2512,98.5734,0.98999,3.36075,0.555272,11.9284,8
6.3201,0.190492,0.328175,9.96582,0.0626833,61.6251,131.348,0.995633,2.86354,0.402041,9.19055,6
6.03539,0.272274,0.518724,6.37839,0.0273253,37.0452,105.548,0.991626,3.29216,0.515281,11.8146,8
4.521,0.447517,-0.00554816,1.45805,0.0530254,11.2263,181.075,0.994174,3.79115,0.54252,10.1953,6
7.6137,0.229806,0.405508,5.13057,0.0660667,14.7314,88.2095,0.994855,3.17011,0.790424,9.60374,6
7.13968,0.264958,0.194939,8.3396,0.052854,53.4953,184.227,0.996006,3.1421,0.518673,9.58738,6
6.42502,0.32578,0.334967,5.42759,0.042617,26.9368,89.567,0.991732,3.28809,0.602116,12.0416,8
6.36268,0.433396,0.320559,1.44037,0.0477813,10.1019,70.6327,0.991944,3.07229,0.42599,11.3301,6
6.32295,0.408366,0.344468,4.84333,0.0235046,27.6191,110.247,0.990846,3.29068,0.373772,12.5765,8
6.64755,0.165884,0.336249,1.91653,0.0437744,24.9607,105.435,0.989431,3.18351,0.750237,12.4116,8
7.8822,0.424049,0.484704,8.45873,0.0555887,33.4628,161.219,0.996591,3.28873,0.608274,11.1427,8
6.63523,0.193222,0.26615,10.2842,0.0382385,28.7418,130.442,0.994639,3.10376,0.4392,10.3789,8
6.96888,0.245166,0.280166,15.1957,0.0462974,38.4444,170.027,0.998147,3.22806,0.443524,9.28331,6
6.23515,0.168983,0.275295,4.75581,0.0376152,39.8471,139.392,0.993139,3.40193,0.459328,10.7601,8
5.96084,0.238359,0.281532,2.20027,0.0509564,39.6972,175.822,0.993732,3.6385,0.552061,9.93865,8
7.56237,0.196552,0.394458,2.48903,0.0437194,30.3784,180.765,0.99403,3.47881,0.453498,10.6843,8
6.93216,0.207814,0.285119,2.22218,0.055497,48.7571,154.075,0.994481,3.01247,0.470828,8.71732,7
5.98456,0.303241,0.243857,4.07989,0.038417,42.033,119.75,0.992585,3.15209,0.494134,11.0086,6
5.65261,0.297353,0.0947328,6.38022,0.0432746,33.9339,139.592,0.993782,3.14094,0.486573,9.76381,6
7.02503,0.199003,0.344829,5.41687,0.034833,33.6908,79.5901,0.992833,3.19115,0.456434,11.4156,5
7.4342,0.203313,0.305956,1.54341,0.0389738,34.6267,112.923,0.991258,3.24123,0.38865,12.0239,8
9.02806,0.27592,0.447323,10.7938,0.0352032,28.5394,125.771,0.997165,3.19956,0.46619,10.3896,9
5.86946,0.302109,0.241812,4.06531,0.0412218,41.4451,115.935,0.992225,3.14818,0.490064,10.9739,6
5.89362,0.126138,0.282572,1.28391,0.0377674,34.8209,84.1825,0.99061,3.32393,0.417181,10.7999,8
6.86249,0.312277,0.328605,7.15778,0.0597837,36.387,173.832,0.996184,3.46676,0.616544,11.1138,8
6.98274,0.146025,0.288706,13.3543,0.0483289,47.0602,118.43,0.997045,3.20381,0.368451,9.63425,8
6.64928,0.307849,0.31522,14.3816,0.0385283,5.10937,79.38,0.9943,3.14644,0.337056,12.5829,6
6.12076,0.224116,0.271844,2.04383,0.0396255,23.7768,123.184,0.991458,3.19273,0.486752,10.4742,5
7.08689,0.320132,0.302852,9.57002,0.0413242,63.7489,192.5,0.996572,3.12205,0.481304,10.2164,5
6.82752,0.325455,0.253424,4.53248,0.0267943,45.4817,144.363,0.992462,3.26418,0.42605,11.1562,8
7.31486,0.276733,0.426615,14.6281,0.0390095,49.7671,170.478,0.999749,3.28567,0.825007,9.08776,8
6.04532,0.450883,0.265859,0.791135,0.0402254,14.9835,83.6643,0.992665,3.23173,0.317675,9.51364,6
7.21403,0.206357,0.341679,2.98268,0.034024,49.5003,151.571,0.989961,3.14674,0.393083,12.7371,8
7.31594,0.188497,0.279144,13.894,0.0567411,45.2172,162.615,0.998248,2.95581,0.412061,8.77553,7
7.81734,0.255275,0.334641,13.2928,0.0447152,67.3569,183.023,0.999652,3.22433,0.74522,9.00943,6
6.38892,0.287462,0.192592,15.7373,0.0397792,21.1355,140.35,0.996234,3.10277,0.543147,10.588,6
6.3373,0.401669,0.304721,2.96395,0.0309196,47.9642,164.143,0.992708,3.54301,0.788991,11.675,8
6.76552,0.377105,0.275134,3.85873,0.0287912,27.9452,79.9635,0.990006,3.22843,0.45445,12.3762,8
6.36651,0.245235,0.331258,1.38184,0.039539,40.7405,116.626,0.99051,3.18387,0.47807,11.3117,8
6.50563,0.287675,0.535069,1.91718,0.0402171,43.2641,190.353,0.992372,3.25007,0.588236,10.3979,8
6.67161,0.22378,0.27047,5.96464,0.0449742,41.9754,161.443,0.995185,3.27556,0.7597,9.44917,6
6.68282,0.317776,0.377093,15.8251,0.0589162,14.9262,166.076,0.999588,3.38121,0.611171,9.226,6
6.74659,0.260541,0.436535,8.094,0.0462506,52.4375,180.704,0.99596,3.1948,0.509603,9.46245,6
5.73533,0.370251,0.316666,1.21679,0.0328516,21.2031,92.8505,0.989587,3.03106,0.377295,11.2094,5
6.83017,0.156329,0.332298,4.84723,0.0578814,30.3246,118.061,0.995458,3.43895,0.394148,8.89839,8
5.49077,0.160423,0.218288,4.53646,0.0269739,29.5765,102.107,0.993771,3.22667,0.351626,9.28394,5
6.71764,0.36113,0.492343,8.72783,0.0550838,36.5489,163.916,0.996415,3.04589,0.474814,9.47103,6
5.95231,0.380542,0.252224,6.14265,0.0368559,42.5246,132.214,0.991234,3.38688,0.383641,12.2723,8
6.18726,0.317795,0.22614,3.63569,0.0512641,34.6324,116.95,0.994164,3.1509,0.481503,8.50581,6
5.96554,0.192354,0.265804,11.8419,0.0485826,50.3247,149.735,0.997321,3.29996,0.357716,8.92876,5
5.47491,0.48481,0.00070694,1.21566,0.0653503,6.91182,101.513,0.993976,3.61782,0.402449,9.69104,4
6.53623,0.455072,0.312667,5.00012,0.0265249,14.7201,70.5653,0.991492,3.26611,0.604197,11.5281,8
8.3645,0.424233,0.618435,19.5455,0.039296,40.4838,170.946,1.00009,2.98455,0.688179,9.82162,6
6.10634,0.159402,0.287674,6.07602,0.0309303,29.1938,144.932,0.994677,3.68427,0.463352,10.6719,5
6.01483,0.171765,0.330614,6.29213,0.0343189,30.4837,111.736,0.993572,3.32602,0.585245,10.1188,8
6.71912,0.17659,0.273325,10.7947,0.0388063,29.4235,112.968,0.994863,3.11145,0.44855,10.9437,8
5.81465,0.274082,0.314618,2.37717,0.0262669,32.0321,114.866,0.989491,3.31314,0.606972,12.4766,8
6.02075,0.231524,0.140145,9.506,0.0499621,99.5405,207.159,0.995806,3.04116,0.296929,9.08655,6
7.04339,0.294597,0.329418,0.912407,0.0395718,21.5799,115.935,0.990346,3.21683,0.496138,11.4063,6
7.88235,0.344357,0.51426,15.3671,0.0476281,54.0649,170.763,0.99866,3.08692,0.514598,9.14413,6
6.79285,0.288428,0.361494,7.69034,0.0477873,28.1661,121.093,0.992909,3.02947,0.369987,11.3991,5
5.78353,0.260875,0.289687,6.78951,0.0359335,43.5408,149.841,0.992882,3.35673,0.438458,10.711,8
6.79515,0.255013,0.276784,4.78946,0.0351101,42.316,132.717,0.990479,3.12282,0.38047,12.5916,8
6.54361,0.520426,0.179665,1.71225,0.0448689,4.11866,24.4253,0.993307,3.26276,0.313733,10.1015,4
6.58155,0.313977,0.119297,11.0799,0.0308734,34.3682,165.811,0.997248,3.2252,0.31959,9.06443,6
5.03685,0.164472,0.550524,1.66351,0.0247977,24.8161,117.593,0.990714,3.48029,0.385941,10.813,8
9.02076,0.172166,0.49713,1.22997,0.0397116,45.647,130.312,0.993182,3.08767,0.51169,10.4998,8
6.30403,0.210821,0.31394,0.904226,0.0423288,30.4088,117.609,0.991468,3.48659,0.681316,11.073,5
5.05575,0.334867,0.222959,1.31714,0.028407,18.2312,87.8683,0.989164,3.50449,0.375728,12.4394,8
5.73921,0.296846,0.377529,4.67039,0.0399881,22.6241,88.571,0.989731,3.2401,0.571616,13.0765,8
7.29662,0.184467,0.265934,1.68964,0.0280494,35.3044,137.221,0.992713,3.38827,0.541859,10.9207,8
6.16697,0.215906,0.393593,1.82363,0.0320981,25.4886,111.451,0.989558,3.03328,0.294536,11.8432,8
6.78181,0.285386,0.346612,7.9316,0.0352545,33.2076,173.898,0.996861,3.34121,0.420828,9.11104,6
5.75447,0.281456,0.346796,4.15419,0.0315742,40.4332,101.514,0.989451,3.37554,0.384185,12.751,8
5.58982,0.337721,0.102954,1.31261,0.0324674,19.1983,66.1378,0.990711,3.37644,0.50981,11.1149,8
7.36248,0.21681,0.272603,1.9078,0.0581275,45.1485,98.869,0.993076,3.28599,0.432569,9.81538,8
6.92307,0.283579,0.240215,1.68141,0.0337621,49.8574,120.61,0.989149,2.97393,0.431909,13.1668,8
5.72607,0.283156,0.298494,1.08744,0.0262384,32.2058,110.005,0.98969,3.32021,0.595149,12.6214,8
6.92416,0.231325,0.331909,2.82579,0.03091,24.5844,121.174,0.990249,3.13803,0.377072,12.516,8
7.36472,0.329361,0.396634,6.5756,0.0376841,32.5835,138.326,0.99193,3.01557,0.299888,11.8402,8
7.16091,0.187434,0.308422,1.44703,0.0454746,36.4083,135.257,0.994071,3.35898,0.55966,10.1689,8
4.65979,0.341324,0.144744,1.15125,0.0370712,70.2654,166.596,0.992003,3.46119,0.455442,10.4865,6
6.01624,0.304139,0.293425,2.26121,0.0298279,49.52,163.977,0.989497,3.38899,0.436784,12.6537,8
7.33639,0.50344,0.282472,10.8204,0.0339364,61.8181,224.343,0.996905,3.12002,0.554975,9.55106,5
7.31689,0.276375,0.435311,2.05779,0.081529,20.314,118.365,0.990497,3.19323,0.416982,12.8059,6
7.59494,0.305912,0.480433,4.13514,0.0446454,25.8228,132.334,0.991005,3.10217,0.675918,12.8794,8
7.92832,0.464775,0.396466,10.0758,0.169808,18.9425,187.771,0.998086,3.06664,0.611426,9.54963,6
6.88524,0.232525,0.340284,1.34421,0.0362865,30.4364,113.151,0.991281,3.1586,0.477988,10.811,8
8.2782,0.267168,0.422858,9.50653,0.0430416,40.7853,160.901,0.994183,3.10615,0.38373,11.9368,8
6.95498,0.353394,0.301084,6.50328,0.0300923,26.732,90.1074,0.993581,3.3903,0.422119,11.3723,8
6.23994,0.298559,0.321524,0.997209,0.0501987,18.4228,123.01,0.989806,3.31477,0.529051,12.6558,5
6.75518,0.177835,0.285897,1.15714,0.0274633,31.1363,111.299,0.99106,3.14754,0.448159,10.9068,8
7.17694,0.330377,0.29562,8.23389,0.0205125,13.8549,102.725,0.993448,2.99163,0.431539,11.3582,5
9.75933,0.160786,0.460068,1.76282,0.0455812,21.2332,129.282,0.995783,3.03452,0.67799,9.54557,6
6.25745,0.143992,0.291772,1.41302,0.0230854,38.8839,98.9454,0.99118,3.42373,0.57253,11.3432,8
6.14501,0.233564,0.29577,1.6292,0.0433256,21.3061,59.966,0.991895,3.30456,0.546778,10.3585,6
7.873,0.412894,0.365851,4.7157,0.0287615,38.8169,113.211,0.992098,3.16906,0.549118,12.5042,8
6.81581,0.117866,0.436662,1.61976,0.042989,50.8394,132.163,0.990471,3.18573,0.751119,11.3094,8
5.81842,0.296344,0.421742,0.903045,0.0358535,18.4699,114.358,0.988807,3.10704,0.459269,12.5862,8
7.62976,0.520384,0.497123,14.0611,0.033038,36.5991,150.543,0.995794,3.13432,0.382713,11.8316,8
7.32955,0.206183,0.48096,1.70245,0.0360329,44.9373,153.639,0.991324,3.31751,0.446517,12.575,8
6.54681,0.309581,0.214528,6.34474,0.0421716,8.35305,127.906,0.994864,2.94016,0.511357,8.82628,6
6.65996,0.155769,0.20658,6.64191,0.0548244,42.8941,159.479,0.993891,3.14941,0.515524,10.7299,5
6.7029,0.301266,0.288321,2.8832,0.0229698,36.6109,106.331,0.991493,3.31878,0.616146,11.3085,8
7.14043,0.200511,0.297774,0.682072,0.0192612,4.52254,25.9972,0.989368,3.20454,0.363959,12.0538,5
7.57269,0.179332,0.408687,7.56863,0.054677,50.5057,106.678,0.995272,3.05965,0.526176,9.81853,5
6.03924,0.12414,0.27576,5.503,0.0395266,55.6583,185.865,0.994793,3.58279,0.431987,10.6114,8
6.72951,0.532008,0.338182,3.63475,0.0335451,26.3035,109.416,0.990641,3.25279,0.569454,12.77,7
6.4783,0.467866,0.310772,5.3419,0.0261529,16.0665,74.2559,0.991597,3.25379,0.599781,11.4778,8
6.67827,0.228111,0.291505,1.61663,0.0443362,19.7425,94.58,0.991836,3.1683,0.451042,10.6773,8
6.71052,0.137902,0.522036,4.10538,0.0280199,57.5464,127.528,0.991616,2.91781,0.531166,10.6933,8
8.98045,0.163878,0.479627,0.653312,0.0398211,46.2692,127.892,0.99306,3.09833,0.506174,10.4533,8
7.01656,0.172313,0.734588,12.5054,0.0443814,24.9599,123.754,0.994399,3.26369,0.366197,12.1849,7
6.63072,0.28628,0.0947015,11.0493,0.0499998,36.3215,133.413,0.995629,2.9376,0.621428,9.49612,5
6.81366,0.363541,0.276377,2.59557,0.0231081,63.5774,106.42,0.990079,3.45178,0.602298,12.5755,7
5.15778,0.332917,0.21997,1.7808,0.0289074,18.2176,91.7046,0.98936,3.50903,0.392917,12.4466,8
6.06646,0.129317,0.362293,1.09912,0.0328913,64.1928,148.314,0.99188,3.32425,0.436414,11.2385,6
6.29742,0.217748,0.326041,4.83927,0.0308373,36.113,94.9694,0.990216,3.26172,0.367594,13.5153,8
6.78381,0.185259,0.342128,1.52874,0.0317281,21.2536,86.4796,0.989701,3.08015,0.628143,12.4086,8
7.92179,0.56245,0.398473,4.06235,0.0335543,22.531,119.369,0.991538,3.27307,0.663341,12.6899,8
8.34302,0.176718,0.417145,5.18217,0.0371352,7.54019,73.3615,0.993867,3.15285,0.523873,11.6862,6
6.34335,0.152241,0.227171,1.92011,0.042125,40.6933,147.828,0.993176,3.49716,0.568583,10.0397,5
7.48741,0.242915,0.31262,13.2075,0.0501928,25.5441,179.26,0.998669,3.0531,0.52867,9.13432,5
6.43152,0.348029,0.211655,5.65223,0.0337078,17.6734,119.192,0.994301,3.32709,0.429662,10.0536,6
7.78757,0.244078,0.368036,1.10766,0.0438572,10.3367,80.7985,0.991441,3.08184,0.375516,11.4815,6
5.62706,0.184631,0.576424,1.47212,0.0351174,29.3171,128.93,0.989756,3.50704,0.599214,12.0037,8
7.41794,0.243233,0.367202,2.02833,0.0337621,27.0795,140.874,0.990627,3.27224,0.483814,12.5178,9
6.42659,0.144485,0.406846,1.5455,0.0436262,23.2072,84.4712,0.989556,3.10411,0.45985,12.1802,8
6.93646,0.237003,0.485026,1.22411,0.0312042,34.5787,147.9,0.993087,3.45472,0.569186,10.7313,8
5.766,0.606697,0.0134656,8.06675,0.0418785,30.5013,100.765,0.990778,3.26643,0.729802,14.0978,8
6.96738,0.223812,0.178728,1.58985,0.0472906,7.51118,61.4967,0.99384,3.37705,0.469549,10.1356,4
7.11158,0.198462,0.311878,7.23561,0.0521865,31.7609,212.277,0.995953,3.3064,0.593336,10.4836,5
6.91725,0.340788,0.313166,4.49317,0.0291053,33.4189,149.479,0.991754,3.3564,0.487579,12.2556,8
7.1866,0.135664,0.402203,1.69408,0.0484249,54.4556,132.772,0.993309,3.30335,0.978017,9.83101,8
6.17983,0.348182,0.307817,2.72541,0.0368487,36.9391,96.119,0.989231,3.27144,0.526959,12.7784,8
6.29511,0.361486,0.27273,2.67231,0.0350129,19.4498,72.731,0.9888,3.08801,0.459466,12.9329,8
6.13992,0.294066,0.329262,2.62069,0.0427138,40.9539,145.489,0.989592,3.29511,0.433988,12.7038,8
6.30205,0.235695,0.319145,1.66851,0.0258507,10.9728,82.9935,0.989341,3.3003,0.391352,12.8701,8
5.74337,0.177855,0.252461,1.73938,0.0233898,19.8563,91.622,0.989083,3.0652,0.538955,12.3212,5
8.47923,0.250433,0.492353,7.31352,0.0383116,45.2196,104.735,0.993371,3.04578,0.32503,11.9622,8
6.6518,0.230448,0.322697,1.49671,0.026949,25.6506,103.043,0.991063,3.29101,0.598804,11.8734,5
7.28882,0.180989,0.410375,1.37958,0.0465802,41.4953,99.1541,0.99193,3.14028,0.461571,10.4235,6
6.86029,0.175745,0.295542,12.6987,0.062995,17.9474,170.034,0.997965,3.00697,0.518905,9.0755,8
6.99337,0.20392,0.273303,9.14237,0.0439911,37.1206,223.697,0.995166,3.2528,0.544917,10.3747,5
6.20582,0.295263,0.322605,1.0541,0.0503826,32.4594,184.671,0.992737,3.2879,0.433263,10.061,6
6.9051,0.327526,0.256961,8.2293,0.0538689,30.9863,180.169,0.996702,3.25333,0.497659,9.20931,5
7.74972,0.14792,0.33692,0.978444,0.0336171,31.5739,94.7781,0.991103,3.05943,0.736484,11.3675,8
6.12843,0.21763,0.406015,1.8791,0.029448,24.845,111.448,0.989496,3.03442,0.310223,11.8445,8
7.14021,0.157139,0.281809,0.932657,0.0304705,40.4565,124.446,0.989808,3.11291,0.401715,12.1833,8
5.92262,0.282868,0.391698,1.47302,0.0305504,46.2336,141.587,0.988098,3.07479,0.633914,12.8926,8
7.18522,0.205018,0.617314,16.3029,0.0451939,14.4165,102.268,0.998828,3.05972,0.351353,9.38122,5
6.73872,0.310014,0.0895592,1.48685,0.0397734,55.1479,144.433,0.99205,3.19969,0.459856,9.98333,6
7.1444,0.246508,0.324447,14.3767,0.0743689,28.8767,109.954,0.997928,2.97437,0.420665,9.1728,5
6.55592,0.551329,0.156927,9.73436,0.0373312,36.2878,158.791,0.996741,3.27695,0.518532,9.39624,6
5.66755,0.239109,0.465479,5.94921,0.0685448,34.7423,182.037,0.993869,3.10311,0.459744,9.81441,6
5.59618,0.191272,0.265265,1.22382,0.0296493,11.1377,76.1632,0.990431,3.25249,0.369775,10.8783,8
8.45058,0.239093,0.273498,5.15157,0.0303633,31.9368,95.1895,0.992289,3.01534,0.32978,11.915,5
8.86593,0.300545,0.348893,4.34144,0.0319353,31.9741,147.902,0.994846,3.15698,0.448445,11.5122,8
6.79595,0.165456,0.29317,10.9722,0.0443563,58.1351,142.922,0.995213,3.20696,0.405254,10.8175,5
6.32727,0.256283,0.513039,7.39127,0.0491547,35.7091,199.029,0.995767,3.15444,0.544928,9.34612,4
6.41509,0.224252,0.346329,4.56701,0.0383094,44.9541,145.285,0.99232,3.20058,0.38595,11.0432,8
8.35548,0.256741,0.404221,9.09102,0.0429733,40.2949,164.248,0.994672,3.09468,0.380402,12.0753,8
6.39531,0.124947,0.359816,1.20818,0.041103,22.3068,65.3944,0.990285,3.16497,0.500671,11.6811,8
6.81653,0.17288,0.372492,1.00028,0.0390019,35.5498,109.059,0.991817,3.31439,0.585659,11.1863,8
7.00882,0.551542,0.0498768,8.36309,0.0347838,19.6088,163.505,0.992678,3.26669,0.470876,12.1411,5
6.84665,0.228844,0.314864,9.56405,0.038849,21.7305,112.021,0.99577,3.34399,0.533657,10.6477,8
7.38689,0.157727,0.306094,13.8245,0.0546597,33.4478,167.365,0.998177,2.89637,0.443797,8.68784,8
8.01697,0.251618,0.359238,1.07371,0.0550725,13.9473,134.439,0.993646,3.08598,0.552532,9.48862,6
5.61895,0.233117,0.281324,9.69748,0.024387,25.2083,121.25,0.992514,3.27385,0.381251,11.266,5
6.3172,0.156998,0.397339,1.70663,0.0417771,21.5419,88.8847,0.989541,3.10336,0.463991,12.1983,8
6.83758,0.267597,0.28235,7.24164,0.0372322,25.901,93.4814,0.991712,3.23226,0.341625,12.4046,5
6.13087,0.316719,0.585838,5.26596,0.0387017,35.9124,114.634,0.99078,3.29508,0.606594,12.3199,7
5.74269,0.310308,0.309237,7.44551,0.0533899,56.1224,231.423,0.995015,3.1958,0.45942,9.75675,6
6.97238,0.264125,0.337332,12.9361,0.051902,57.5363,174.023,0.998149,3.37928,0.386354,9.80322,6
5.74205,0.274252,0.242114,9.37654,0.0436563,55.8047,150.721,0.996088,3.31872,0.379079,9.37891,6
5.11665,0.250667,0.369536,1.28527,0.0336948,41.5549,75.9078,0.989102,3.22565,0.63723,12.0507,8
7.07058,0.357602,0.270867,3.12529,0.034591,27.1762,133.364,0.989714,3.25166,0.385354,13.1408,8
7.21144,0.245292,0.191616,7.93589,0.0471205,52.6366,176.173,0.995525,3.1621,0.378342,9.53087,6
7.83614,0.259502,0.450172,1.24382,0.0380053,44.6306,139.139,0.994464,3.18451,0.655875,9.93571,6
6.40454,0.286924,0.183774,15.1435,0.0380705,20.0676,114.408,0.997324,3.14137,0.489235,9.23911,6
6.49177,0.226674,0.251135,16.969,0.0462192,14.5143,110.185,0.998221,3.14724,0.423662,9.19096,5
8.19923,0.169497,0.333673,1.66643,0.0502048,17.3542,94.7947,0.993838,3.14502,0.572943,9.46812,6
7.7774,0.132169,0.301975,1.66993,0.0396525,41.9428,180.039,0.995682,3.42423,0.414774,9.04442,6
7.55238,0.294648,0.403791,2.13858,0.053316,28.381,175.962,0.9947,3.18943,0.528753,9.81948,6
7.10289,0.42509,0.60481,11.6933,0.0451991,53.0052,156.665,0.997362,3.10638,0.443911,8.67531,6
7.33325,0.334924,0.264412,15.3377,0.0511849,67.1872,214.405,0.999053,3.04764,0.677456,9.4501,6
6.40822,0.278831,0.349296,3.14217,0.0396907,29.1811,122.825,0.990958,3.2681,0.483065,12.0576,8
6.20046,0.26141,0.428644,8.02576,0.0562294,48.9147,242.207,0.995497,3.10094,0.508998,9.04111,5
6.72936,0.405698,0.238997,5.17928,0.0355629,33.7263,109.589,0.989794,3.12422,0.445929,12.9244,8
7.02887,0.319662,0.310415,7.57599,0.0252369,34.4285,124.668,0.991634,3.1407,0.649119,12.8345,8
6.73677,0.464238,0.218411,3.54989,0.0333663,11.6987,88.7779,0.990295,3.25319,0.5273,13.0423,5
7.52028,0.266431,0.306709,4.26115,0.0265325,29.5347,89.5859,0.990779,3.15257,0.378745,12.0173,8
7.00222,0.213936,0.22607,4.89717,0.0472594,39.0117,165.314,0.994397,3.34479,0.479689,10.4224,5
6.13734,0.170914,0.428867,14.8898,0.0334739,28.5047,124.092,0.996817,2.87099,0.467267,9.4971,6
7.46608,0.305521,0.378193,1.68658,0.0457185,29.3551,96.6352,0.991453,3.23124,0.517442,11.4263,8
7.56943,0.146514,0.3534,4.41298,0.0514188,22.8651,96.2913,0.994137,3.09599,0.444149,9.51431,5
7.74819,0.181856,0.52648,1.1434,0.040686,41.2023,166.49,0.990915,3.1124,0.436323,11.9213,6
7.10226,0.238367,0.290101,2.91832,0.036369,16.9381,112.665,0.994226,3.35375,0.678282,10.1727,5
7.14459,0.227209,0.335348,2.76729,0.0334424,47.1065,155.143,0.989909,3.14158,0.392765,12.818,8
7.16352,0.259172,0.377858,1.99989,0.0623586,11.9225,122.667,0.992235,3.184,0.46097,10.3884,6
6.66188,0.325008,0.419263,6.96207,0.0576862,27.0123,148.989,0.995405,3.15368,0.441094,9.5827,6
6.33564,0.224863,0.338692,5.30974,0.0309254,36.7838,89.3616,0.990545,3.27008,0.364186,13.4406,8
6.54294,0.220496,0.22411,17.1318,0.0452365,37.3634,115.149,0.999328,3.09042,0.465263,8.76026,5
8.38541,0.211426,0.289102,18.5052,0.0291779,55.0532,131.147,0.99803,2.95884,0.358444,11.6638,6
5.88437,0.216701,0.296201,4.08305,0.0373748,69.2319,145.414,0.992318,3.13853,0.732111,10.7812,8
6.92198,0.148222,0.288397,2.21967,0.0333858,13.9057,85.2448,0.991299,3.10105,0.578883,11.1754,8
6.78082,0.416091,0.341176,9.03885,0.0482149,28.5438,151.519,0.996816,3.22431,0.513737,9.12259,6
7.21978,0.213097,0.494396,9.07798,0.0325073,29.0083,136.408,0.993968,2.98761,0.316289,10.9955,8
7.76707,0.23587,0.298385,1.09207,0.0418435,15.8746,104.27,0.992627,3.26168,0.535494,10.445,5
7.61286,0.232267,0.254643,15.3411,0.0675373,31.6761,164.969,0.998656,3.03106,0.444634,9.20018,4
6.66931,0.115682,0.333731,8.89964,0.0422126,39.2362,115.056,0.996426,3.40817,0.409567,9.29025,8
6.65038,0.278309,0.308743,7.32334,0.0397902,5.5014,81.9215,0.99256,3.05053,0.467346,11.4051,7
6.98349,0.265433,0.595632,0.674458,0.036314,39.4431,122.449,0.991777,3.32726,0.410583,11.1366,8
7.08751,0.146832,0.337991,1.33368,0.103708,19.3797,49.7287,0.990439,3.18836,0.643865,11.408,5
6.66196,0.136804,0.388703,1.33956,0.0379532,19.8104,84.8818,0.990209,3.08268,0.534699,11.4136,5
5.66132,0.21554,0.225041,4.79889,0.0272535,36.6333,150.509,0.990959,3.30045,0.312482,11.4361,8
6.31587,0.326622,0.197553,17.7656,0.0671536,36.7286,159.461,0.999274,3.14269,0.505259,8.87669,6
7.81805,0.257981,0.305953,3.21178,0.0252015,21.5987,100.489,0.990694,3.00421,0.464687,12.1542,8
7.11071,0.274437,0.350204,3.55905,0.0290964,34.1311,91.6739,0.990056,2.9736,0.330094,11.9996,6
8.09498,0.398196,0.318951,7.70952,0.0316447,20.9978,117.36,0.991703,3.03899,0.460606,13.3263,8
6.28669,0.286054,0.227292,8.3829,0.0300326,32.347,169.056,0.995973,3.39886,0.572101,9.76902,8
6.6916,0.251727,0.266685,4.07959,0.0724982,37.2142,205.274,0.995582,3.31289,0.657915,9.49783,6
7.02321,0.110698,0.313852,4.4652,0.0585389,59.8193,146.86,0.995655,3.55335,0.444472,9.44574,8
8.31851,0.216914,0.279374,18.7875,0.0283025,54.2326,125.068,0.998244,2.96619,0.342968,11.5053,6
7.02125,0.251396,0.450068,2.2203,0.0451357,38.4196,120.49,0.990667,3.1683,0.478361,11.9871,8
7.62903,0.189921,0.358843,2.98576,0.0503313,38.6824,121.689,0.996068,3.60424,0.464654,10.3234,6
6.14885,0.430019,0.480654,5.87695,0.0440321,13.2647,116.039,0.996529,3.27516,0.570973,9.03711,4
6.22211,0.203488,0.26315,9.75075,0.0290073,37.9465,100.423,0.990819,3.08748,0.560305,12.8545,8
6.17732,0.360498,0.304814,2.58385,0.034295,37.2123,95.909,0.989649,3.27216,0.529773,12.8109,8
5.52578,0.291392,0.288481,0.687278,0.0199919,22.0581,113.12,0.988444,3.32612,0.378486,12.8507,8
7.016,0.438898,0.372644,2.58699,0.0413018,35.9762,129.833,0.989481,3.05774,0.422693,13.5047,8
6.1661,0.265906,0.491896,1.14412,0.0491932,20.3805,70.6825,0.993163,3.32391,0.430139,9.79707,5
6.18906,0.245951,0.430037,7.92615,0.0487987,52.5467,204.18,0.995903,3.15349,0.470505,9.18638,5
5.80512,0.301874,0.0988629,6.0733,0.0411456,35.1494,137.029,0.993877,3.16163,0.479832,9.77291,6
6.47275,0.24371,0.213958,1.4312,0.0373733,39.7542,161.076,0.993643,3.40498,0.554857,9.90302,5
8.81621,0.279724,0.450757,5.6927,0.0235287,12.7434,49.0284,0.993158,3.00472,0.338331,11.1262,8
7.49052,0.335069,0.353354,5.82081,0.0330525,12.3013,128.711,0.992252,3.16506,0.387318,12.0624,8
5.1819,0.331595,0.277708,6.75362,0.0206523,43.4266,127.65,0.992057,3.35124,0.396618,10.9821,8
6.70244,0.356359,0.253128,8.42547,0.0332915,39.7765,122.488,0.991311,2.98919,0.30851,12.1859,8
6.56238,0.233969,0.266784,1.59554,0.0278822,38.588,135.397,0.991566,3.34945,0.46167,11.3864,6
6.33127,0.268447,0.240471,6.75275,0.0390433,28.2265,123.421,0.990397,3.22313,0.495027,12.5403,8
7.04089,0.151864,0.283334,14.5873,0.0513102,27.9921,150.135,0.997889,2.95244,0.3926,8.95726,8
6.95761,0.159158,0.381778,2.36145,0.0484015,32.6705,98.0891,0.992734,3.12642,0.388217,10.4281,7
5.94389,0.212158,0.287512,1.10671,0.0331025,47.9115,89.3887,0.988679,3.21485,0.370498,12.5613,5
6.96382,0.156395,0.282181,14.8445,0.0522425,28.3589,148.869,0.997956,2.94878,0.396158,8.97483,8
6.69115,0.339194,0.247755,1.88391,0.0399862,58.763,140.986,0.989182,3.00871,0.47554,12.1944,8
8.83198,0.227218,0.344268,10.5504,0.0425255,25.9955,184.686,0.998446,2.94054,0.482572,9.08258,5
5.90928,0.294863,0.308008,1.78442,0.0294284,37.7071,144.028,0.989096,3.41048,0.411931,12.8403,8
6.6082,0.186969,0.347535,1.83514,0.0488321,46.3195,140.029,0.993541,3.43385,0.84835,10.2032,8
6.89125,0.472408,0.366834,3.75667,0.0320065,30.3587,136.402,0.990399,3.15026,0.381602,12.2349,8
7.052,0.216275,0.280513,1.83322,0.0392024,28.076,109.845,0.99292,3.11019,0.549811,10.5058,5
6.32297,0.271529,0.184019,8.26506,0.0467092,44.4947,188.511,0.996185,3.22808,0.469944,9.08969,6
6.2996,0.364836,0.285757,2.77768,0.0367308,17.7387,76.0811,0.988741,3.10714,0.465316,12.7212,8
5.97021,0.241829,0.262488,1.80018,0.0481123,39.8446,170.962,0.993891,3.63127,0.554877,9.94528,8
6.86175,0.182871,0.358715,0.985988,0.0355401,40.0021,120.571,0.993583,3.27237,0.954933,9.40097,8
7.63377,0.1318,0.33766,9.44071,0.0624696,40.6455,125.224,0.996558,3.20936,0.402041,9.53965,6
7.0615,0.357387,0.357691,4.56215,0.0194764,38.5716,113.857,0.99054,3.06856,0.479972,12.6454,8
6.43682,0.354365,0.283578,1.83378,0.0383934,30.5429,116.429,0.98766,3.12011,0.402846,14.3251,8
6.06063,0.259306,0.155032,1.48884,0.0525144,35.4486,124.389,0.993452,3.077,0.454169,8.72094,6
7.92683,0.291118,0.385777,6.43895,0.0376274,5.35169,118.417,0.99366,3.12482,0.412695,10.6944,6
8.02293,0.416473,0.344167,5.01337,0.0362561,35.5747,101.782,0.99208,3.12968,0.562676,12.2594,8
7.41447,0.32976,0.260037,2.75698,0.0396586,29.3103,116.592,0.991238,3.06292,0.529783,11.6963,8
7.26315,0.242001,0.380785,18.0812,0.0564936,44.4297,145.495,0.99997,3.21115,0.361133,8.63362,6
8.2995,0.414696,0.613797,19.2361,0.0399111,42.163,172.561,1.00023,2.98638,0.670118,9.71562,6
6.20629,0.293119,0.31798,1.41256,0.0531745,31.7839,186.645,0.99291,3.27133,0.440251,10.1233,6
6.47072,0.282467,0.542214,1.84977,0.04076,40.7102,191.876,0.992081,3.25471,0.595607,10.3014,8
6.94017,0.616293,0.414608,12.1253,0.0683733,24.066,130.078,0.997085,3.18589,0.347173,9.3786,6
6.31491,0.332151,0.426548,8.54474,0.0539285,53.0633,160.575,0.994775,3.09275,0.479099,9.57898,6
8.40879,0.317924,0.316117,0.904526,0.0207769,52.977,149.318,0.990195,2.92183,0.329104,11.5066,6
6.76949,0.30024,0.235336,4.13333,0.0590614,52.5642,236.742,0.995806,3.31457,0.603738,9.56795,6
6.70355,0.325807,0.829085,1.2312,0.150076,49.1856,119.728,0.993045,2.99674,0.374791,9.22828,6
6.69837,0.217348,0.392013,10.2439,0.038788,60.0952,147.817,0.997184,3.17709,0.540342,9.91763,8
7.10457,0.552385,0.136144,1.69696,0.0732539,20.0331,166.364,0.993942,2.96772,0.583132,9.19408,5
6.47446,0.214854,0.273503,2.29544,0.0380357,35.2117,116.695,0.99177,3.37191,0.576445,11.0399,8
6.55732,0.359896,0.21108,1.35365,0.0488902,38.385,180.876,0.992695,3.18466,0.42508,9.84613,5
5.69403,0.150403,0.282449,3.42905,0.0454999,58.4483,146.391,0.991478,3.22723,0.272946,11.0871,5
6.45278,0.29166,0.276448,11.0148,0.0632334,67.1308,167.401,0.997506,2.89251,0.57558,9.00646,6
8.60833,0.314184,0.30307,1.01134,0.0441684,16.4256,110.391,0.992397,2.95754,0.39426,10.0233,6
6.65725,0.260574,0.395273,1.26569,0.0412659,44.1112,146.548,0.993615,3.31342,0.588197,9.60054,7
6.94801,0.177881,0.382722,8.24902,0.0490883,44.2641,175.533,0.995669,3.29519,0.544017,9.8785,5
6.4835,0.184162,0.327673,8.09997,0.0518561,16.0022,134.348,0.996591,3.272,0.447976,8.73684,8
7.91019,0.459957,0.314704,4.0298,0.0332131,39.4243,138.565,0.991501,3.18515,0.444222,12.8078,8
6.63846,0.245745,0.405533,7.33417,0.0420892,28.968,150.497,0.994813,3.14943,0.591449,10.1653,8
7.02784,0.363043,0.140375,11.7146,0.0442811,35.9068,229.959,0.997852,3.13046,0.505169,8.89034,6
7.12952,0.210304,0.369771,2.11974,0.0260068,25.6037,99.8718,0.990126,3.16357,0.379192,11.3435,8
5.06724,0.298785,0.323404,3.87239,0.0295439,53.9857,173.778,0.988495,3.35028,0.300697,13.0365,8
7.06342,0.232291,0.309161,16.916,0.0553669,47.9301,155.831,0.99974,3.36752,0.384191,9.59526,5
6.07606,0.34527,0.296768,2.30265,0.0361109,25.4864,97.6566,0.989539,3.04756,0.437257,11.872,5
7.75852,0.275356,0.343072,1.40042,0.0284924,27.0153,169.637,0.991022,2.98906,0.471297,12.0962,8
6.17971,0.395942,0.237532,4.21779,0.036114,46.4191,134.887,0.991585,3.22486,0.426778,11.1664,8
7.14867,0.164529,0.360887,10.9202,0.0423552,19.8816,91.6438,0.995783,3.16883,0.438123,10.8519,8
7.31115,0.288538,0.319393,1.28504,0.035852,21.2874,108.964,0.99282,3.06488,0.370343,10.9038,6
7.39641,0.128351,0.397485,4.98104,0.0417021,35.4183,140.33,0.995043,3.34377,0.553409,10.3317,8
6.46734,0.319959,0.130187,11.0279,0.0315848,35.3141,163.99,0.997488,3.22729,0.315793,9.00226,6
5.64266,0.417397,0.341699,2.52265,0.0207943,32.9416,94.0691,0.989111,3.2153,0.380022,12.826,8
7.12642,0.310496,0.345194,7.4071,0.0463343,45.5203,175.945,0.995656,3.14882,0.523147,9.65492,6
5.13685,0.265651,0.336723,1.29474,0.0264177,46.52,110.257,0.989667,3.36355,0.422794,11.3225,8
6.06656,0.276341,0.355845,1.92724,0.036369,15.7748,115.465,0.993324,3.15419,0.700761,10.4593,6
7.63652,0.298602,0.424085,14.1015,0.0472646,45.5166,208.957,0.9989,3.17057,0.637005,9.2048,6
8.12719,0.329232,0.231842,5.3683,0.0466204,23.5359,151.809,0.995157,3.2136,0.464968,10.3378,6
8.52583,0.230744,0.344071,1.24437,0.034814,54.5946,109.43,0.991782,3.07486,0.542791,10.8085,8
6.69929,0.244038,0.345746,13.0153,0.0446103,29.2031,162.455,0.998738,3.44138,0.469281,9.41404,5
7.91982,0.271796,0.414415,2.1547,0.0435617,49.753,148.677,0.993377,3.44527,0.484479,10.7958,7
6.40035,0.283486,0.233494,6.06538,0.0502984,48.5314,164.375,0.993932,3.15191,0.519187,10.2646,6
6.57881,0.202098,0.313372,1.40829,0.0375442,24.1659,78.9283,0.992708,3.39582,0.538231,10.3013,8
5.41512,0.23414,0.360832,1.17091,0.0293168,74.2107,123.292,0.989749,3.23693,0.993073,12.1302,8
6.67294,0.106376,0.337169,8.62441,0.0435629,41.7367,115.367,0.995946,3.42505,0.399797,9.27358,8
6.43475,0.340149,0.201449,15.0462,0.0595139,35.654,160.183,0.998435,3.13501,0.449438,9.00169,4
7.01186,0.320972,0.346669,0.975548,0.044014,20.8407,68.4358,0.990946,3.30365,0.648576,12.0764,8
6.07837,0.253534,0.43091,12.8551,0.0438693,51.4712,196.892,0.996709,3.24246,0.544726,9.55794,5
6.14936,0.394645,0.236591,4.87675,0.0369941,43.6798,138.893,0.992073,3.21607,0.425016,11.3067,8
6.94063,0.146396,0.279592,1.52513,0.0270191,9.16013,52.3848,0.993466,3.44871,0.444579,9.84101,6
6.72381,0.183545,0.372362,0.91853,0.0266047,42.4982,124.886,0.989615,3.24066,0.361547,12.8003,8
7.51669,0.322663,0.257153,2.36226,0.0429397,12.2318,135.483,0.993566,3.06776,0.376735,9.35648,6
7.12968,0.229539,0.19067,13.8304,0.0539564,47.4726,197.739,0.998684,3.11354,0.530884,8.92168,6
6.56056,0.498658,0.217379,3.72296,0.0363385,35.4437,132.342,0.990342,3.26202,0.547479,13.075,8
5.66262,0.179302,0.320988,1.72418,0.0370096,15.8717,80.8842,0.992328,3.34017,0.575343,10.1454,5
7.14616,0.305089,0.415695,8.95526,0.0530421,14.214,87.7584,0.997442,3.29553,0.644328,9.90877,5
6.32674,0.192961,0.312286,5.50815,0.0341813,34.0906,153.952,0.996355,3.46656,0.398405,8.5571,5
6.05804,0.382202,0.140848,3.67577,0.0600448,28.1657,110.065,0.993327,3.06501,0.336969,9.13015,4
6.74139,0.293681,0.443295,14.1548,0.0531089,30.566,184.662,0.998477,3.14237,0.56694,9.06547,6
6.64323,0.359185,0.509405,9.655,0.0503565,29.8991,138.442,0.996447,3.07024,0.406405,9.29528,6
7.66959,0.428955,0.289476,4.38729,0.0449061,33.2188,105.971,0.991762,3.16804,0.559754,12.1571,8
7.63385,0.315542,0.237571,1.96006,0.0387455,39.2799,146.073,0.991461,3.06773,0.435255,11.7458,8
6.53391,0.265427,0.313923,4.67074,0.138697,40.7772,167.504,0.995107,3.19856,0.387528,9.27277,6
6.02915,0.274179,0.287091,19.4958,0.0521007,36.6833,175.867,0.998846,3.12767,0.490617,8.9245,6
6.86875,0.193594,0.354208,7.08624,0.0452948,51.4066,123.856,0.993138,3.10175,0.452508,10.6812,8
7.19387,0.28591,0.341597,1.78687,0.0559429,31.7224,149.039,0.992043,3.17793,0.459346,10.6475,6
5.64879,0.178947,0.231598,3.99315,0.0439595,25.7343,111.691,0.994261,3.35105,0.398868,9.36117,6
7.78034,0.249494,0.34464,13.5373,0.0433174,66.4167,183.557,0.999894,3.21391,0.754346,8.94025,6
6.49022,0.293325,0.529459,1.62303,0.0401434,41.6383,191.207,0.992347,3.26973,0.580134,10.4905,8
6.39314,0.162376,0.447998,1.07658,0.0522058,39.5924,115.695,0.990629,3.09586,0.755685,11.3039,8
7.59992,0.207295,0.608071,1.96312,0.0444681,47.6512,162.428,0.993674,3.05854,0.543504,10.1361,8
7.19096,0.341571,0.304461,8.55434,0.0496438,40.64,167.229,0.997511,3.49588,0.615593,9.66809,6
6.20763,0.26906,0.428768,7.76383,0.0574907,48.0237,245.651,0.99557,3.09457,0.51949,9.05155,5
7.42567,0.259435,0.282265,7.46168,0.0263499,12.9933,80.171,0.992279,2.95707,0.367391,11.3394,8
7.05508,0.250531,0.442778,2.48377,0.0451931,40.3559,115.685,0.990547,3.15952,0.475706,11.9316,8
7.21574,0.185927,0.455252,4.12663,0.0422492,82.0378,188.753,0.993259,3.18876,0.602901,11.1661,8
8.62373,0.349732,0.369985,1.58045,0.0447139,10.2957,120.347,0.995456,3.16274,0.471062,9.31862,4
6.77937,0.221935,0.379566,10.1985,0.0368335,59.55,148.847,0.997107,3.17745,0.5462,9.9901,8
6.92257,0.154063,0.280769,4.10512,0.0279793,14.0175,111.828,0.993499,3.2307,0.455557,10.3789,7
5.67483,0.349658,0.400331,6.5604,0.0194822,23.2244,174.482,0.992094,3.54067,0.502132,11.6036,8
6.96058,0.151972,0.316796,8.29478,0.0451879,38.3329,125.647,0.995844,3.20084,0.341896,9.05395,6
7.04976,0.448087,0.227703,5.54882,0.0366455,24.9471,99.8689,0.990554,3.13587,0.571216,13.2744,8
7.9068,0.420652,0.485714,8.15495,0.0571686,31.7505,163.316,0.996304,3.28992,0.595869,11.1734,8
8.159,0.337891,0.271807,7.68527,0.0393708,68.7724,229.124,0.995606,3.13646,0.544703,9.78218,5
7.98108,0.266014,0.337973,1.10214,0.0504239,41.5009,106.329,0.989935,2.99592,0.445194,12.2487,5
7.39887,0.157578,0.305699,13.8866,0.0555719,33.8852,170.506,0.998482,2.89569,0.440178,8.6591,8
4.8923,0.161856,0.272021,2.97102,0.028682,21.4076,106.293,0.990445,3.38326,0.34025,11.1932,8
5.53415,0.325144,0.123634,1.30408,0.0369116,43.93,154.989,0.991923,3.26439,0.372228,10.7559,6
7.7622,0.300417,0.399091,1.74998,0.026597,22.1059,117.932,0.99132,3.14864,0.392547,10.9607,8
6.00499,0.36397,0.395097,2.99174,0.0287995,18.7602,126.837,0.991107,3.39583,0.386834,11.1793,8
6.60428,0.300186,0.0687045,1.34625,0.0342325,56.2531,144.614,0.992014,3.15537,0.417001,9.94798,6
6.12173,0.251908,0.459902,11.4761,0.050489,63.0425,209.482,0.996556,3.18926,0.498858,9.4828,6
7.18409,0.269251,0.739016,12.8273,0.0377913,47.9955,157.255,0.99791,3.03707,0.439982,8.69283,6
7.10111,0.268344,0.342661,14.8047,0.066358,34.1446,187.884,0.9986,3.06634,0.528405,9.05113,8
7.21022,0.195786,0.30452,6.7165,0.0350707,16.665,104.806,0.992958,3.15155,0.513614,11.2725,8
7.14978,0.371976,0.670606,10.1035,0.0460588,49.7925,156.528,0.997557,3.15723,0.440048,8.72351,6
5.68385,0.348971,0.282764,3.53557,0.035642,41.1975,150.239,0.99118,3.35831,0.574364,11.6421,8
6.15936,0.359132,0.243292,2.0436,0.0337774,25.4712,133.744,0.990333,3.33751,0.582586,12.1068,8
7.34823,0.19212,0.301421,12.82,0.0538772,48.1914,230.556,0.998474,3.15561,0.494087,9.15547,8
7.24113,0.205258,0.285759,10.6913,0.0393521,19.2051,110.381,0.996997,3.39778,0.487918,9.57679,5
7.35227,0.225199,0.255484,1.45079,0.0496428,43.1613,140.59,0.993561,3.41332,0.540713,10.1315,8
6.83947,0.312427,0.241525,10.3216,0.0427507,29.1461,165.642,0.997101,3.35919,0.546021,10.4158,5
6.53799,0.349887,0.274432,0.957175,0.0554873,9.67895,159.956,0.994184,3.41433,0.510266,9.05016,8
7.04057,0.44278,0.36733,2.69411,0.0397709,35.6803,129.172,0.989534,3.08779,0.425651,13.2899,8
6.99029,0.20555,0.733888,0.945077,0.0464602,20.912,162.709,0.992984,3.45955,0.529387,10.1325,6
8.09005,0.214641,0.308361,1.60503,0.0351706,7.35579,49.6392,0.992392,2.98861,0.733281,10.2898,6
7.49744,0.431861,0.196,1.3376,0.0594156,14.4393,163.932,0.994657,3.0667,0.40213,9.3739,5
7.76332,0.961331,0.605329,65.3979,0.0750848,9.11975,160.424,1.03897,3.38622,0.691076,11.6892,5
7.55546,0.140179,0.742452,1.40118,0.0399241,26.5024,102.008,0.991423,3.06804,0.404054,10.7622,8
8.06067,0.169657,0.223432,1.61667,0.0353767,22.8599,120.523,0.993916,3.18094,0.526367,10.233,5
6.78105,0.248117,0.347762,13.8502,0.0343695,45.3161,133.567,0.995331,3.37278,0.497268,12.2348,8
6.37426,0.228777,0.309988,1.93171,0.0399305,37.9969,115.565,0.990901,3.32295,0.52179,11.8378,8
6.71621,0.18253,0.298961,12.8331,0.0605439,19.152,170.837,0.997969,3.00816,0.512716,8.89686,8
7.22606,0.20262,0.378686,0.904417,0.0369131,22.5096,70.3678,0.991698,3.21227,0.354305,11.0307,6
7.22232,0.344383,0.306012,8.64791,0.0514392,39.4324,167.144,0.997541,3.46577,0.621479,9.7384,6
7.02477,0.158528,0.248111,14.1681,0.0452874,26.919,148.425,0.998339,2.90106,0.458027,9.16949,5
6.8346,0.309355,0.188927,3.73103,0.0852748,29.611,131.922,0.992981,2.83125,0.44506,9.68876,6
4.98082,0.46507,0.180897,1.90491,0.0352624,32.7158,103.728,0.987466,3.21218,0.826895,13.953,8
7.34759,0.486283,0.241448,15.2876,0.0305641,33.4566,153.741,0.995209,3.13155,0.507938,11.8942,8
5.26291,0.314583,0.37527,10.5231,0.0340355,51.1586,140.736,0.993287,3.3361,0.458158,11.7062,5
7.00631,0.230914,0.419371,18.2702,0.0482004,34.5776,145.102,0.999691,3.20757,0.420442,8.84036,6
5.54543,0.249121,0.559017,10.3724,0.0557698,65.1144,170.366,0.994632,3.25627,0.607956,10.4294,8
6.09589,0.235228,0.273884,2.22954,0.0500327,39.8306,171.47,0.993903,3.63739,0.52794,10.099,8
8.18636,0.275862,0.420864,1.60377,0.0323826,30.2687,95.5234,0.99146,3.09128,0.392799,11.4205,6
7.83522,0.258471,0.482768,2.78704,0.0454454,21.2586,115.177,0.993018,3.14926,0.341358,10.2419,6
5.15766,0.309996,0.355649,4.56296,0.0328003,45.8704,141.52,0.989437,3.14022,0.309315,12.4012,8
6.71259,0.420406,0.377189,11.8859,0.0406801,60.4905,243.997,0.998035,3.31584,0.583914,9.74349,6
7.49855,0.411652,0.232915,14.9789,0.0542014,25.4568,174.748,0.999028,3.18029,0.489607,9.67026,6
8.76672,0.31671,0.737002,14.1354,0.0446075,25.6978,188.49,1.00019,2.96664,0.883371,8.56864,6
7.20105,0.254357,0.32523,10.1877,0.0618105,23.4541,113.279,0.996623,3.23839,0.491501,10.5575,6
7.0288,0.270897,0.241521,13.1359,0.0442583,48.5295,120.493,0.997227,3.03033,0.557691,10.0184,8
7.55783,0.309225,0.274012,8.90433,0.0212408,56.7745,153.845,0.99443,3.07573,0.385513,10.8881,8
6.80476,0.260794,0.122971,1.40007,0.0418966,86.6043,167.922,0.992063,3.18743,0.421332,10.0351,6
8.11962,0.211413,0.38791,3.59651,0.0516955,40.2325,175.175,0.993011,3.22073,0.407888,11.6356,6
5.81124,0.198128,0.265427,1.32337,0.029717,13.7984,75.4627,0.990514,3.25949,0.358551,10.9383,8
7.22251,0.287084,0.534004,17.7885,0.046705,59.3527,184.945,0.999267,3.08535,0.511904,9.63141,6
8.21019,0.364595,0.358224,0.934652,0.0316232,17.4416,94.2112,0.990338,3.05246,0.320435,11.6588,7
6.71841,0.35245,0.321175,8.83387,0.0330866,29.3119,112.344,0.991922,3.12974,0.651784,12.9139,8
4.73445,0.459027,0.17555,1.7981,0.0362096,32.6319,108.675,0.987523,3.21413,0.833252,14.0914,8
5.86143,0.390443,0.464994,7.64216,0.0277438,12.4715,84.6231,0.990715,3.3865,0.445798,13.9758,5
6.99347,0.288494,0.328875,7.57617,0.0319994,30.3367,117.52,0.991553,3.12624,0.62722,12.8469,8
7.42383,0.334283,0.433946,7.62108,0.0490276,38.5844,225.694,0.996883,3.12214,0.508318,9.04419,6
6.2456,0.224643,0.31295,1.67166,0.021196,12.7514,76.9921,0.989307,3.3057,0.403542,12.936,8
7.2388,0.351977,0.372793,5.98772,0.0373554,26.2834,100.067,0.991372,2.9357,0.580913,12.3709,8
7.1777,0.311653,0.347245,7.09421,0.0459684,43.695,177.115,0.99543,3.13006,0.533909,9.80917,6
7.14125,0.195224,0.373946,1.88583,0.0490741,28.623,131.627,0.992477,3.14648,0.517671,10.8905,6
6.18776,0.276984,0.323321,8.72863,0.0484363,65.306,222.074,0.996398,3.17357,0.474619,8.87691,6
6.99131,0.32722,0.287101,8.02146,0.0265858,35.8454,123.646,0.991568,3.14799,0.651452,12.8743,8
6.91212,0.144956,0.287411,2.55149,0.0331967,13.0138,82.9531,0.990972,3.09811,0.57987,11.1219,8
7.33018,0.193016,0.490394,6.73024,0.0372944,16.6396,104.63,0.993894,3.19315,0.381417,10.9931,8
6.57324,0.279196,0.345762,14.9078,0.042689,56.691,197.075,0.99798,3.23134,0.505852,9.65407,5
7.42193,0.156496,0.267047,15.4294,0.0487017,25.8216,130.705,0.998389,2.89581,0.428041,8.86035,8
7.80151,0.245254,0.346327,14.0257,0.0427325,64.1519,182.851,0.999896,3.22622,0.753927,8.87515,6
6.92781,0.283055,0.300103,8.26435,0.0265142,36.733,113.283,0.991343,2.98729,0.381209,12.2876,7
5.97008,0.0975941,0.251745,1.29673,0.041242,15.6358,66.5513,0.992917,3.5986,0.599078,10.2859,8
6.58758,0.229766,0.301225,4.6483,0.0583118,27.8816,156.282,0.991266,3.23586,0.485489,12.1625,7
5.69781,0.222482,0.193424,15.7986,0.0422026,40.6439,114.735,0.998401,3.21758,0.458153,8.93307,5
7.48195,0.245776,0.305459,12.6566,0.0500541,26.8349,180.661,0.998658,3.04975,0.534921,9.14878,5
6.03068,0.332556,0.264352,5.0664,0.0502578,17.1518,121.277,0.994091,3.13886,0.410947,9.09446,6
8.81773,0.28046,0.453174,6.13855,0.0226386,14.0298,48.7767,0.993387,3.01431,0.335153,11.2576,8
6.69414,0.178064,0.277983,10.3341,0.0393069,26.9342,114.585,0.994728,3.12152,0.463831,10.8881,8
7.37217,0.205563,0.338916,6.22963,0.0265827,11.3676,43.1333,0.992442,2.78036,0.522955,10.9922,6
5.99816,0.339901,0.661629,16.0145,0.0464039,26.6402,161.726,0.997778,3.14498,0.496253,8.93014,5
6.75512,0.604308,0.23845,0.957282,0.0375177,6.83355,62.5825,0.993658,3.4107,0.317878,10.5086,6
7.58146,0.358458,0.471404,13.5581,0.0372846,44.6001,117.736,0.998192,3.04096,0.483851,9.16848,6
6.742,0.235496,0.492366,19.3706,0.0562921,56.8409,248.153,1.00065,3.00423,0.552483,8.64788,6
6.6438,0.328879,0.827395,1.53714,0.154387,49.2892,123.019,0.99284,2.9813,0.377729,9.29842,6
6.83763,0.392025,0.337871,7.44096,0.0202964,38.2644,131.725,0.991941,3.17453,0.439073,12.043,8
7.07135,0.225708,0.274885,1.90934,0.0461505,32.3098,103.157,0.989818,3.12038,0.311376,11.9807,6
7.06908,0.474569,0.283007,14.5284,0.0240419,23.0025,141.896,0.995045,3.12476,0.476417,12.0307,7
4.81854,0.128475,0.325951,1.02283,0.0415921,39.4201,98.1679,0.989879,3.40929,0.631956,11.8539,8
6.75881,0.270541,0.128951,1.79138,0.0423329,86.3763,171.49,0.992212,3.18332,0.409104,10.0211,6
6.81601,0.185328,0.323888,6.61703,0.018282,54.1557,185.711,0.993372,3.24839,0.366412,11.1636,7
7.08812,0.264154,0.338235,14.3988,0.0670782,33.7781,186.83,0.998636,3.08669,0.529423,9.07784,8
6.77545,0.267772,0.493553,1.15145,0.042694,35.7103,124.228,0.989999,3.13833,0.48435,12.0477,8
7.5963,0.164142,0.439509,1.10266,0.0429311,24.4698,110.322,0.99289,3.09461,0.74934,10.2822,5
7.5068,0.412704,0.202659,1.74921,0.0612106,13.4472,166.1,0.994281,3.05901,0.397946,9.28202,5
6.51493,0.260044,0.310117,0.737615,0.0353916,39.8691,113.27,0.991229,3.30178,0.588078,10.7704,8
6.83555,0.295633,0.220147,3.20448,0.0344368,39.0565,122.812,0.990314,3.07821,0.473718,12.3336,5
7.84811,0.280964,0.343597,1.69586,0.027431,31.7309,119.841,0.990306,2.98918,0.381362,12.1378,8
8.28725,0.25583,0.317285,2.09087,0.0297284,13.7696,139.369,0.990952,2.94612,0.773525,12.1783,5
6.14253,0.465507,0.205636,1.32092,0.0427865,12.5812,92.576,0.993389,3.15124,0.461157,9.05321,6
6.40614,0.32791,0.290158,4.39653,0.0397463,23.0986,81.0274,0.990137,3.26265,0.639467,12.5592,8
6.51959,0.282351,0.274949,20.4259,0.042082,39.5359,143.003,1.00032,3.1457,0.377419,8.61688,6
7.41576,0.141748,0.39115,4.58077,0.0420533,35.9889,137.412,0.994786,3.35281,0.557809,10.2753,8
5.8871,0.293227,0.296722,2.4616,0.0294118,38.6185,143.739,0.989079,3.39253,0.41101,12.9484,8
7.3694,0.258402,0.482593,0.975486,0.0463471,16.3244,129.546,0.991304,3.18613,0.48929,11.4755,5
6.76606,0.247002,0.344385,13.9429,0.0332005,47.0072,129.728,0.995363,3.3688,0.4954,12.1712,8
5.27203,0.160407,0.391402,1.00173,0.0289405,39.1154,100.483,0.99141,3.5679,0.591542,10.6692,5
6.77271,0.367727,0.303576,1.58659,0.0363229,9.93712,125.819,0.994975,3.30588,0.674002,9.60167,6
6.57019,0.265146,0.34948,16.1582,0.0515905,57.0824,197.808,1.00049,3.50233,0.421944,9.81247,6
6.46624,0.227642,0.284111,3.32251,0.0565763,28.9641,154.424,0.991692,3.23839,0.415085,12.1164,8
5.91897,0.303669,0.294316,1.63541,0.0298149,37.7259,145.052,0.988895,3.39848,0.404449,13.0093,8
6.34688,0.241238,0.323148,0.685242,0.0353545,39.1051,113.399,0.991042,3.30859,0.578181,10.8036,8
8.06157,0.3995,0.326211,8.03742,0.0337966,26.4257,98.5692,0.99363,3.17994,0.40537,12.1713,8
6.59973,0.558119,0.153095,10.2242,0.0350625,38.9494,155.874,0.996404,3.28721,0.514035,9.49043,6
6.45523,0.257854,0.426609,12.7404,0.03445,62.9619,232.36,0.997224,3.07197,0.374047,8.87552,6
6.37846,0.348552,0.342059,5.47642,0.0346147,8.81609,148.507,0.99442,3.16484,0.492881,9.78351,4
7.17381,0.224243,0.195066,13.694,0.0527714,46.4383,196.977,0.998475,3.11742,0.530815,8.95333,6
6.62676,0.411756,0.24799,5.33518,0.0349034,33.0774,116.559,0.989967,3.12872,0.444218,12.9317,8
7.42392,0.239703,0.27276,6.85602,0.0296411,13.7249,78.9018,0.992262,2.9513,0.379273,11.5065,8
5.63585,0.249116,0.650768,1.41387,0.0781473,17.1332,136.711,0.992935,3.19494,0.427097,9.46635,6
6.35212,0.259174,0.497641,1.15858,0.0528984,32.8508,131.981,0.992559,2.98155,0.611842,9.85883,5
8.00612,0.226966,0.352091,9.54469,0.0428608,52.5912,186.873,0.997125,3.0788,0.565454,9.53084,8
5.34599,0.759654,0.0348797,2.62185,0.0438816,26.5253,93.3597,0.993125,3.34675,0.369645,9.3238,6
6.43461,0.340864,0.228926,6.41179,0.0397899,36.9669,144.286,0.994377,3.20791,0.6451,10.0352,5
6.37295,0.254817,0.222032,14.691,0.035824,45.6115,142.935,0.996888,3.15097,0.341487,9.6647,5
6.72276,0.34758,0.264187,1.53842,0.0383062,57.9723,137.721,0.98944,2.97952,0.475137,12.1884,8
7.20991,0.202274,0.447596,1.81546,0.0457604,21.5476,98.6047,0.9924,3.14007,0.462011,10.031,8
7.1162,0.169974,0.277043,17.5051,0.0497885,33.6928,154.337,0.999685,2.94777,0.433684,9.02246,8
6.73662,0.298418,0.287915,2.82166,0.0249382,38.1047,106.838,0.991794,3.30954,0.632752,11.29,8
7.14251,0.258801,0.288058,2.47696,0.0316491,12.7729,128.64,0.991722,3.18079,0.485797,11.4323,6
6.86057,0.270428,0.24027,1.93984,0.0341055,48.97,121.661,0.988769,2.99285,0.423765,13.165,8
6.36608,0.345011,0.363759,4.83214,0.0339953,30.3036,186.173,0.994725,3.15009,0.495193,9.67524,6
6.32906,0.247041,0.311155,2.80428,0.037514,42.41,112.988,0.991755,3.36638,0.651769,11.645,8
6.05398,0.279222,0.30749,1.3267,0.0345642,17.2278,82.5566,0.990732,3.31914,0.434023,11.1239,8
7.41562,0.219238,0.325381,1.8769,0.046396,30.3064,99.6643,0.992906,3.4126,0.549058,11.4118,6
6.64293,0.232805,0.314117,1.43819,0.0227808,26.2729,106.211,0.991065,3.29157,0.59782,11.7782,5
7.59263,0.229899,0.498846,7.95119,0.0486775,60.9548,206.919,0.994043,3.13572,0.298845,11.0732,8
6.51547,0.279805,0.335601,10.3074,0.0380081,28.3862,130.163,0.995445,3.09693,0.44817,9.79752,6
6.29344,0.344417,0.267029,2.38892,0.0245727,42.3614,153.677,0.990798,3.34953,0.595396,11.9048,8
8.60969,0.225733,0.455894,1.52172,0.054651,9.26101,70.1693,0.993899,2.94613,0.483509,9.08507,5
7.11192,0.213021,0.331149,1.19653,0.0371366,35.351,98.1675,0.990741,3.10735,0.748238,11.1685,5
6.38297,0.144346,0.360009,1.64507,0.0328878,43.7571,145.215,0.991991,3.43325,0.692582,10.8744,7
7.40076,0.488199,0.240679,14.9689,0.0306424,35.004,149.048,0.995272,3.11413,0.513073,12.0245,8
6.42821,0.228255,0.312632,1.63712,0.0394255,39.4277,121.903,0.990818,3.30879,0.529728,11.7313,8
6.52408,0.185006,0.34279,1.93271,0.0277311,38.7388,114.865,0.989629,3.19389,0.689808,12.3555,5
6.76861,0.193219,0.332279,1.80042,0.0339704,21.505,85.5256,0.989824,3.08684,0.625654,12.3622,8
6.3257,0.217423,0.374053,9.3709,0.0443175,34.3129,132.268,0.99309,2.96364,0.292339,11.0104,8
6.03482,0.378788,0.41741,5.34312,0.0164418,30.4698,112.86,0.990077,3.14267,0.309495,12.3135,8
7.0553,0.46986,0.229677,13.6142,0.0457887,45.1114,192.05,0.998041,3.11292,0.536417,9.44346,6
6.94156,0.229425,0.360106,2.68438,0.0339064,22.4289,111.122,0.990251,3.18548,0.370044,12.6019,7
7.31267,0.186914,0.476151,15.541,0.0582326,48.3145,132.06,0.999977,3.43024,0.353091,9.18996,8
6.73455,0.31549,0.096811,1.36075,0.0390991,53.67,138.846,0.991845,3.11497,0.435008,10.1845,6
7.18468,0.231088,0.192022,13.4199,0.0524926,46.524,197.524,0.998589,3.13071,0.534067,8.90963,6
6.85649,0.220651,0.396556,6.61534,0.0331163,40.0093,121.345,0.992528,3.18178,0.457556,11.4299,5
6.17024,0.327854,0.276416,4.81943,0.0379943,27.6495,131.336,0.992578,3.20735,0.416441,10.4283,8
5.21848,0.198773,0.317335,1.66971,0.047423,17.0487,63.1105,0.989416,3.24434,0.370105,11.9782,8
5.85132,0.193132,0.38125,0.870056,0.0276757,1.43555,23.3786,0.989663,3.08682,0.301279,10.9184,6
5.58921,0.191279,0.261437,1.66191,0.0315006,11.7563,78.3467,0.990836,3.25222,0.370299,10.938,8
6.00888,0.26623,0.446919,7.24284,0.0408331,60.0299,228.353,0.99519,3.12057,0.405742,8.86128,6
6.88074,0.198868,0.403622,1.51597,0.0360147,13.9892,56.0246,0.990819,3.09947,0.685689,11.5464,8
6.49569,0.253702,0.306494,14.8469,0.0508621,40.4501,181.524,0.997684,3.02893,0.500714,9.17282,5
7.12853,0.26089,0.377699,5.25967,0.0245016,31.0409,104.704,0.990931,3.06566,0.339896,12.4969,7
5.32949,0.332461,0.314632,3.59945,0.0309856,27.0922,111.213,0.990388,3.28661,0.437357,12.3107,8
6.48953,0.295518,0.252734,2.42833,0.142532,8.14757,108.793,0.992756,2.99799,0.431851,9.82421,4
5.99432,0.286946,0.263314,2.00661,0.0435989,20.2212,118.113,0.989825,3.30805,0.409039,12.6643,8
7.59049,0.198227,0.321362,13.9251,0.0562435,51.5278,210.754,0.99923,3.12366,0.456059,8.98398,7
7.59044,0.126815,0.331801,8.68811,0.0621958,41.8755,125.21,0.9968,3.20575,0.385453,9.62273,6
7.93439,0.233091,0.258047,1.27466,0.0325775,36.4478,134.066,0.993055,3.44802,0.517467,10.3716,8
6.40073,0.383371,0.237196,7.70034,0.0459314,39.9212,149.486,0.995879,3.09819,0.604308,9.13188,6
7.69112,0.326088,0.364431,1.80363,0.0378282,26.7981,169.45,0.994633,3.42588,0.486294,10.5368,4
7.52219,0.23083,0.677114,10.7943,0.0454112,37.1568,133.814,0.997962,2.98545,0.384594,8.79116,6
8.83028,0.236027,0.311933,13.1875,0.043165,35.4366,167.022,0.999849,3.12552,0.472898,8.8459,8
5.81045,0.273913,0.297012,5.53484,0.0418164,41.4334,146.297,0.992504,3.33203,0.417854,10.8748,8
5.77259,0.163071,0.300453,1.37473,0.0362078,55.6111,128.677,0.990905,3.30534,0.378545,11.3491,5
5.81383,0.188999,0.331491,4.07671,0.0383382,49.021,133.119,0.990902,3.1688,0.413883,11.2042,8
7.1914,0.460386,0.167451,6.15729,0.0492131,13.4844,124.203,0.994595,3.08777,0.488269,9.85016,6
5.92173,0.207339,0.325606,3.34014,0.0296248,25.31,117.336,0.991413,3.37815,0.692416,11.1852,8
7.28266,0.435468,0.367,4.86236,0.0274527,18.1356,112.82,0.99104,3.23413,0.438123,13.2402,5
7.05381,0.264368,0.265687,10.5131,0.0431442,23.6742,115.72,0.9936,3.02867,0.517852,11.566,8
6.86573,0.527588,0.26308,5.956,0.0382261,26.6805,130.615,0.990201,3.11132,0.270007,12.9417,8
7.7489,0.437012,0.237149,11.2059,0.0296436,41.7942,167.51,0.994763,3.12742,0.434307,11.2855,8
6.94171,0.231332,0.484537,1.1322,0.0328126,35.8923,146.022,0.993347,3.46129,0.563411,10.662,8
6.71675,0.201186,0.382754,1.7827,0.0241751,41.7664,101.942,0.990264,3.10205,0.452138,11.4001,6
7.94019,0.138924,0.491399,1.40798,0.0346409,42.1158,121.639,0.992761,3.26538,0.392677,10.6384,8
6.18029,0.405692,0.220313,1.85327,0.023158,6.10582,57.7436,0.989067,3.04125,0.793141,13.0628,8
6.38215,0.347373,0.513754,7.49741,0.0559762,52.6622,177.114,0.995102,3.11516,0.454458,9.67535,6
6.19333,0.254347,0.271016,3.02691,0.0391497,31.1563,123.156,0.989917,3.12389,0.365144,12.8401,5
6.72539,0.495777,0.626418,13.4861,0.0770267,82.0147,240.037,0.998909,3.08852,0.450571,9.28832,6
6.7179,0.476065,0.495723,2.99536,0.0300153,29.5338,119.107,0.989234,3.12537,0.399945,12.8783,5
6.06587,0.341132,0.233303,2.19508,0.033429,25.8059,133.953,0.990667,3.34437,0.591838,11.9811,8
7.95626,0.64902,0.732318,17.5434,0.0414463,63.7699,233.176,1.00023,2.91192,0.679485,9.38632,4
7.51887,0.203184,0.318926,4.96636,0.0566479,39.0744,110.09,0.993815,3.1086,0.508621,10.2033,8
6.89204,0.489926,0.238548,1.19273,0.0499726,13.0291,124.199,0.992971,3.17159,0.504148,9.4069,6
6.57512,0.210375,0.288232,5.27022,0.028834,44.0125,106.768,0.991155,2.92931,0.439987,11.5587,8
7.50232,0.37764,0.335919,9.62864,0.0418695,18.0935,114.284,0.994589,3.07913,0.410959,11.3632,5
7.25327,0.174753,0.33502,6.43881,0.0414216,16.886,108.975,0.99269,2.98332,0.388433,10.7881,5
7.6102,0.396926,0.222451,2.669,0.0349223,18.2095,115.51,0.992677,3.0286,0.295324,10.3333,6
7.47954,0.164554,0.302015,13.9984,0.0562009,33.3162,166.487,0.998497,2.90776,0.43811,8.74032,8
5.82698,0.31517,0.395489,4.56943,0.0322554,22.6607,93.3665,0.990943,3.41386,0.416099,11.9646,8
7.82592,0.252059,0.18699,6.75138,0.0453298,32.8911,159.214,0.996415,3.18924,0.56384,9.81537,5
7.30041,0.21067,0.27684,1.73462,0.0358769,28.1324,115.633,0.991573,3.28577,0.50447,10.9485,7
6.81272,0.26457,0.259304,16.2787,0.0478083,54.6091,196.006,0.998478,3.1527,0.501108,9.28582,6
7.39435,0.302592,0.225064,1.17804,0.0470732,15.6986,136.207,0.992885,3.08239,0.765416,10.3237,8
6.54028,0.181191,0.410345,14.2273,0.0373019,47.1524,124.127,0.996591,3.29717,0.714059,10.2806,8
6.30204,0.379627,0.283558,6.0689,0.035029,44.9869,152.02,0.991919,3.29241,0.468199,11.6078,8
7.22453,0.343107,0.294,8.3376,0.0503292,39.8238,170.429,0.997568,3.47732,0.619126,9.71181,6
6.9305,0.187888,0.355222,1.64418,0.0359772,32.9524,99.0708,0.993039,3.22403,0.547977,10.6628,8
7.58891,0.190652,0.492327,18.1987,0.0442121,37.5653,157.212,0.999707,3.06045,0.408164,9.26081,6
7.67846,0.108593,0.35293,14.1646,0.039351,41.1507,113.338,0.996283,3.07814,0.583113,11.0352,8
6.75818,0.456387,0.273613,4.96489,0.0377546,34.7881,96.5109,0.991313,3.15842,0.439298,12.324,8
7.77473,0.143776,0.348357,1.46515,0.0354447,30.9234,92.6379,0.990791,3.07637,0.71698,11.2401,8
5.75704,0.152828,0.284227,3.85774,0.0461399,59.5204,153.085,0.991372,3.21935,0.271351,11.2084,5
7.22445,0.209825,0.338368,2.83032,0.0315182,48.2471,151.181,0.989926,3.15766,0.390774,12.7126,8
7.15118,0.356281,0.235689,15.6517,0.0548996,45.8306,200.628,0.998566,3.1229,0.489256,8.85483,6
6.76056,0.266374,0.213969,17.4717,0.0335294,15.6063,115.353,0.998759,3.06097,0.529739,9.2273,6
7.01254,0.140824,0.29183,15.5713,0.0636217,55.4704,117.081,0.997588,3.14674,0.415762,9.77112,8
6.75242,0.192894,0.354643,1.86441,0.0360181,30.2983,92.8185,0.991916,3.14318,0.532441,10.794,8
6.41859,0.204548,0.286176,5.87536,0.0454911,29.2876,102.251,0.992891,3.15524,0.398862,11.0887,5
6.75434,0.275725,0.422126,3.59383,0.0348591,44.2033,101.967,0.990235,3.1822,0.377035,12.2179,5
7.14042,0.131203,0.398877,1.49561,0.0472502,53.6357,134.839,0.992946,3.3215,0.963629,9.77728,8
6.09845,0.438593,0.276049,4.62626,0.0332569,43.6768,133.102,0.99175,3.25313,0.472815,11.2169,8
7.19704,0.253015,0.29127,1.46546,0.0313932,12.9038,132.936,0.991723,3.19198,0.496486,11.4148,6
6.63778,0.219742,0.371283,5.58176,0.0284815,31.2511,108.069,0.991899,3.20176,0.471837,11.8809,5
6.80951,0.334769,0.439784,6.78501,0.0495725,28.0004,154.351,0.995321,3.13711,0.417349,9.41371,6
6.75136,0.213505,0.363557,2.49792,0.0333904,34.9754,88.4486,0.991309,3.24356,0.499508,10.9447,8
5.962,0.110305,0.466197,10.7923,0.0521811,69.6444,148.882,0.995701,2.91652,0.331715,9.45188,4
6.81374,0.283187,0.316556,1.85659,0.0311918,17.2282,129.127,0.991038,3.05795,0.610084,11.1357,5
6.45914,0.113033,0.287264,1.86783,0.0373977,71.3422,161.933,0.989227,3.12603,0.25512,12.7983,8
5.657,0.311219,0.327715,7.41906,0.0366859,26.3471,96.3177,0.992614,3.2611,0.491698,11.1575,5
7.49849,0.410161,0.229811,15.0149,0.0537004,28.0884,176.394,0.998962,3.18602,0.495674,9.72169,6
7.024,0.25644,0.248239,1.71257,0.0452058,49.1546,183.98,0.992347,3.20199,0.421511,10.984,8
6.75622,0.351729,0.526152,10.2368,0.0527409,36.6476,150.09,0.99615,3.06971,0.407131,9.42563,6
6.64823,0.283636,0.294902,1.60362,0.0363921,37.7552,101.982,0.988189,3.0917,0.424862,13.6287,8
7.00197,0.154887,0.284848,14.7074,0.0508628,28.4632,146.569,0.99773,2.95726,0.387245,9.02801,8
6.84023,0.239772,0.335143,13.5797,0.0328281,45.8287,132.399,0.99522,3.36672,0.501901,12.2999,8
5.66932,0.22787,0.278023,1.509,0.02606,25.5894,99.0693,0.989219,3.33991,0.387094,12.5294,8
5.78642,0.195177,0.266024,1.48618,0.0312639,11.2328,77.0012,0.990596,3.25394,0.366701,10.8765,8
7.27139,0.209164,0.293414,8.17311,0.0469675,42.044,208.171,0.996485,3.3273,0.455811,9.54191,5
6.26794,0.176808,0.327053,1.09501,0.0413801,39.0787,115.092,0.988902,3.30101,0.388739,13.0945,7
6.5202,0.178556,0.319812,1.42409,0.0406886,31.9326,135.973,0.991664,3.3662,0.543244,10.7622,8
6.13398,0.14613,0.245235,1.51903,0.0474911,36.8623,176.229,0.992844,3.35926,0.452591,10.0477,5
6.26626,0.200204,0.268302,4.67913,0.0407621,107.767,170.679,0.992729,3.06857,0.751138,10.6421,8
5.66415,0.134832,0.293633,5.04726,0.0454362,26.4885,108.66,0.994897,3.31977,0.45633,9.21398,6
7.85152,0.135322,0.450116,1.62961,0.048463,17.651,112.255,0.994709,3.34004,0.488156,10.682,8
6.85165,0.178402,0.386917,6.02342,0.0374697,19.1963,108.251,0.994271,3.10726,0.424813,10.493,6
6.31877,0.299372,0.249422,6.72227,0.0434717,39.2008,141.822,0.995049,3.21518,0.46895,9.48106,6
8.02567,0.423101,0.367592,4.98704,0.0373558,35.3972,99.4339,0.991956,3.12786,0.56821,12.3382,8
5.79319,0.31681,0.237271,1.50096,0.0344215,37.9888,120.837,0.988972,2.97621,0.344887,11.9786,6
7.02412,0.384107,0.418043,12.0746,0.0426098,32.3355,192.867,0.996395,3.05861,0.484107,10.093,5
5.37917,0.507021,0.129331,4.96357,0.0276857,12.6216,109.214,0.990698,3.47862,0.870273,13.568,8
6.41191,0.134982,0.425797,0.924861,0.0514056,50.769,126.937,0.991183,3.26823,0.692905,11.0783,8
7.28474,0.128021,0.311166,2.20628,0.0540931,22.2469,103.785,0.992704,3.23904,0.92258,11.4951,8
6.33501,0.166154,0.345315,13.4036,0.0434175,45.9806,142.149,0.997586,3.05854,0.43294,8.99576,5
6.85771,0.290153,0.389873,0.941605,0.0359177,15.097,114.387,0.991805,3.28046,0.734088,11.633,6
5.6074,0.170732,0.299625,10.3074,0.0270845,29.4277,131.96,0.995099,3.48468,0.420136,10.7675,8
7.98163,0.244191,0.130386,16.6695,0.0349828,49.1104,220.266,0.99935,2.96875,0.462567,9.6718,6
8.33823,0.387771,0.694656,10.2578,0.0442374,33.8803,166.318,0.997505,3.08723,0.566203,9.38742,6
9.33602,0.28691,0.551359,1.97364,0.0501491,15.217,120.092,0.996255,3.13924,0.682746,10.2071,4
7.87611,0.29368,0.316644,7.36064,0.035786,36.4722,149.292,0.993909,3.05888,0.296995,10.8238,6
5.32171,0.301312,0.30451,1.01586,0.028562,24.3276,93.8599,0.987483,3.30328,0.400746,13.5696,8
8.22493,0.225679,0.363341,1.29687,0.0421017,37.0876,118.555,0.992813,2.98152,0.353238,10.0585,6
6.5071,0.252706,0.228787,2.0569,0.0460092,26.7939,123.482,0.994145,3.37217,0.601876,10.0148,5
6.45967,0.210577,0.370345,2.38397,0.0491785,70.061,138.969,0.991906,3.31229,0.745233,11.4113,8
6.96899,0.122896,0.282998,10.7912,0.0399288,40.3705,97.6402,0.995639,3.17992,0.383119,9.8311,7
7.29301,0.197737,0.248235,0.957178,0.0519567,41.5941,105.855,0.993674,3.5327,0.660118,10.4551,8
6.57674,0.215785,0.223272,17.3331,0.0458553,37.1932,119.961,0.99911,3.09392,0.462553,8.79059,5
7.07175,0.26195,0.342156,14.6801,0.0665752,36.0568,184.602,0.998807,3.08194,0.529516,9.08974,8
6.58881,0.253144,0.458552,6.92854,0.045209,59.4556,182.523,0.995956,3.18791,0.44604,9.30926,6
8.02091,0.598389,0.391074,12.287,0.30149,25.4669,217.977,0.999268,2.94299,0.481686,9.2041,6
6.73833,0.449841,0.298408,11.5085,0.0939651,23.3063,97.3504,0.997278,3.0939,0.445791,9.52349,6
7.0328,0.271414,0.239326,11.8862,0.0427105,48.1684,118.325,0.997416,3.03562,0.559738,9.9482,8
6.81545,0.188237,0.309828,6.9379,0.0200889,53.9339,190.532,0.993409,3.24402,0.380493,11.2222,7
6.40309,0.344562,0.21092,2.00212,0.0508967,46.4296,169.011,0.993227,3.15315,0.492383,9.55286,6
6.57463,0.202621,0.38433,8.10609,0.0515695,29.2927,143.685,0.994853,3.31881,0.552831,11.0167,8
5.92523,0.338687,0.303437,2.17625,0.0290838,36.8753,139.093,0.988936,3.41361,0.407771,12.9008,8
7.16641,0.316687,0.240935,5.491,0.03441,22.365,117.545,0.99356,2.91158,0.649691,10.2471,8
6.93397,0.258686,0.338123,12.3719,0.0522634,58.8233,176.557,0.997927,3.38202,0.393063,9.86623,6
7.17738,0.271079,0.260421,12.5329,0.0474,48.3758,180.267,0.997562,3.09934,0.513382,8.94473,5
6.28443,0.243497,0.280279,6.16695,0.0544936,39.9744,161.415,0.993893,3.20604,0.485553,10.246,6
7.45735,0.18473,0.310692,12.1168,0.050518,24.8121,93.6326,0.996996,3.19891,0.434489,9.5161,8
6.57858,0.291055,0.38859,7.04427,0.0309651,22.157,93.7423,0.991341,3.14956,0.808603,12.97,8
6.19919,0.235012,0.293444,12.848,0.0393731,49.2189,129.718,0.995457,3.32711,0.467082,11.1532,7
6.68589,0.295594,0.739732,4.88994,0.0372289,35.2114,152.333,0.994457,3.20013,0.460581,10.0223,6
7.2376,0.247365,0.400501,18.0257,0.052062,50.8181,185.094,0.999944,3.34047,0.427278,9.53733,6
6.71432,0.422308,0.382277,11.6852,0.0410567,61.359,247.132,0.998024,3.31273,0.576284,9.68688,6
6.76518,0.255209,0.338239,13.9362,0.0312284,46.7928,134.067,0.995348,3.36938,0.498164,12.2631,8
7.10075,0.350456,0.311587,1.41349,0.0676279,15.4266,164.392,0.9946,3.18474,0.470736,9.45147,6
5.77848,0.176555,0.372707,1.01355,0.0343088,19.7711,77.1886,0.988651,3.08644,0.494817,12.6614,8
7.63254,0.13507,0.339732,9.24817,0.0616853,39.9872,126.112,0.996647,3.21585,0.394118,9.66394,6
5.74205,0.197731,0.238196,1.58954,0.0421731,38.5185,128.689,0.993742,3.78061,0.6092,10.6298,6
6.89895,0.301254,0.218231,6.90606,0.0453655,52.0629,188.913,0.99587,3.21169,0.483132,9.42242,6
6.75624,0.166349,0.367293,1.98593,0.0384052,34.6837,124.215,0.992021,3.25983,0.601421,10.7795,8
6.83774,0.246736,0.32944,4.52325,0.0409421,15.6531,128.119,0.993481,3.25548,0.637605,10.7048,5
7.78916,0.219796,0.387512,1.63442,0.0326754,60.7657,182.454,0.990946,3.10158,0.740557,12.6402,7
6.8529,0.249258,0.240763,1.60626,0.0504743,6.45453,123.873,0.992975,3.2349,0.69965,11.5341,6
5.61757,0.491246,0.132051,4.04903,0.0383164,17.1884,117.778,0.990687,3.41925,0.901711,13.6321,8
7.05543,0.14125,0.389553,0.906953,0.0512196,54.541,137.63,0.992982,3.30659,0.951955,9.84017,8
7.20328,0.252025,0.327683,1.76099,0.0474816,28.0288,129.145,0.993272,3.25379,0.443241,10.6092,6
5.21079,0.3846,0.255439,7.95504,0.0526497,20.143,99.9009,0.992542,3.26916,0.445233,12.0955,5
7.15269,0.440372,0.369829,2.54573,0.0418488,33.396,125.697,0.989771,3.07458,0.428188,13.4036,8
6.53525,0.221121,0.276056,12.3854,0.0592291,24.8723,123.602,0.998581,3.43828,0.446619,9.29058,6
7.42599,0.187397,0.30631,12.8791,0.0535185,47.4811,230.934,0.998702,3.1474,0.496219,9.21185,8
7.13016,0.242717,0.284323,14.5884,0.0560429,54.6229,203.405,0.998594,3.11992,0.380913,9.07087,8
6.57831,0.249798,0.403318,7.36313,0.0438545,29.2945,150.821,0.994685,3.14262,0.597634,10.2375,8
5.67082,0.459261,0.462309,1.53726,0.0393595,32.6052,171.96,0.993025,3.12083,0.467449,8.81172,6
7.39682,0.190686,0.309602,14.5852,0.0466136,38.175,194.927,0.998648,3.09853,0.490423,9.18058,5
7.11633,0.153921,0.342987,5.01364,0.0314087,32.4563,103.203,0.995234,3.36051,0.519215,9.19298,8
6.68985,0.217152,0.374252,2.05015,0.0299127,24.9653,99.9198,0.991326,3.27742,0.582128,11.5388,8
7.54884,0.396967,0.27662,5.62446,0.0293283,31.3241,100.459,0.991642,3.22206,0.620453,12.2673,8
7.72925,0.298685,0.398393,2.01181,0.0303323,21.8535,122.136,0.991315,3.15458,0.392552,10.8216,8
6.48665,0.172757,0.402379,14.0611,0.0401924,46.207,130.644,0.99651,3.28892,0.711622,10.3211,8
6.41297,0.18111,0.308214,2.81372,0.0353285,32.8922,126.191,0.991783,3.03882,0.490723,10.3814,5
7.30045,0.413338,0.384132,7.23476,0.0454654,28.7218,125.454,0.992351,3.2003,0.366104,12.5847,8
7.04648,0.36949,0.390113,2.17876,0.0334097,26.0538,114.827,0.989592,3.1929,0.45017,13.5184,8
7.18684,0.223879,0.244116,18.2269,0.0844794,17.3985,111.56,1.00071,3.10805,0.515399,8.67287,6
6.71314,0.399612,0.238124,5.62628,0.0349997,32.8138,117.982,0.990421,3.11889,0.433031,12.9629,8
7.18441,0.347605,0.257573,6.18004,0.0305914,23.3038,118.581,0.992959,2.92984,0.658867,10.3561,8
6.50566,0.310044,0.328947,2.23001,0.0441771,35.0842,90.2961,0.991855,3.37207,0.686792,10.9509,8
6.64066,0.284247,0.287406,2.64761,0.0116771,36.1155,101.398,0.990821,3.24982,0.380875,11.8152,8
6.85654,0.141011,0.28071,4.59159,0.0290274,13.3618,103.827,0.993447,3.25432,0.453747,10.4603,7
7.41755,0.399616,0.284593,5.46537,0.0443214,31.2792,119.64,0.99401,3.30181,0.497529,11.1077,7
6.51342,0.336644,0.289357,3.2208,0.0352039,34.8302,87.9269,0.990433,3.25373,0.626593,12.4839,8
6.70678,0.435702,0.311715,1.85915,0.0325479,38.7488,104.097,0.989992,3.28326,0.614061,12.6698,8
8.83505,0.333519,0.441549,6.12958,0.0229423,9.37464,87.1827,0.991767,2.96738,0.403208,12.5748,8
6.63365,0.554676,0.147698,10.1889,0.0360301,37.1414,150.991,0.996579,3.27484,0.513654,9.39914,6
6.1354,0.269211,0.328574,2.05275,0.0221276,27.3743,117.021,0.988361,3.11563,0.29997,12.5785,5
7.50289,0.204404,0.304684,4.58393,0.0562589,38.8231,111.723,0.994031,3.09636,0.518785,10.1759,8
6.65549,0.176699,0.42062,10.8578,0.0385564,85.8646,185.612,0.996148,3.04037,0.440063,9.06622,5
6.61545,0.212346,0.312428,11.8009,0.03982,47.0989,163.354,0.99781,3.40453,0.43837,9.90046,8
7.64515,0.315798,0.274868,8.79148,0.0209691,57.3596,154.433,0.994419,3.07139,0.384846,11.0147,8
7.04202,0.286671,0.43534,1.60569,0.0329583,30.8131,103.919,0.990979,3.25319,0.490262,12.1928,8
6.58759,0.161317,0.384753,1.40509,0.0317784,27.9876,114.4,0.991587,3.24332,0.551637,11.4596,8
6.36664,0.306327,0.404926,6.20266,0.0382586,39.1263,188.337,0.995128,3.1326,0.515642,9.76372,6
6.78805,0.181558,0.288602,9.75147,0.0396721,29.4097,114.002,0.993991,3.11653,0.451197,10.8818,8
6.19385,0.773942,0.00379089,2.99835,0.040915,18.3103,120.783,0.990358,3.19569,0.949328,13.712,8
6.85254,0.262119,0.432043,8.34496,0.0446888,52.1666,180.518,0.995817,3.20135,0.512027,9.35993,6
4.60668,0.670123,0.0944722,1.56072,0.020054,4.56782,6.22303,0.987271,3.2919,0.34454,13.6175,6
5.72293,0.271358,0.301524,5.48983,0.0426341,40.9187,148.01,0.992534,3.33758,0.417366,10.8302,8
6.15508,0.238449,0.264954,1.77641,0.0326065,61.0939,131.502,0.990134,3.18126,0.810233,11.9183,8
8.61167,0.324143,0.330763,11.7397,0.0578383,41.5446,243.068,0.998578,3.17106,0.514299,9.89827,5
7.43061,0.199945,0.357985,1.81573,0.037907,29.1514,116.664,0.994995,3.47874,0.77473,10.2574,8
6.97435,0.439565,0.176097,11.8004,0.0511487,26.8687,123.927,0.99743,3.22924,0.480298,9.09326,6
7.73456,0.169677,0.407115,1.63507,0.0484874,60.1929,175.75,0.993219,3.2455,0.654117,11.1847,8
5.3537,0.406953,0.187598,1.43592,0.0395849,26.5665,88.0073,0.992566,3.55099,0.402886,9.9927,8
8.0302,0.23027,0.372711,9.68411,0.0528502,24.6893,160.838,0.9982,3.33815,0.473493,9.76149,4
5.86838,0.344557,0.302946,2.26015,0.0311656,36.9012,138.868,0.988732,3.3888,0.403127,12.8316,8
5.95105,0.244389,0.268019,1.70234,0.048388,39.5006,165.602,0.993659,3.6437,0.535653,9.91938,8
7.10291,0.279014,0.449798,1.65458,0.032892,33.4025,103.741,0.99072,3.24541,0.479522,12.1653,8
7.11612,0.241261,0.412212,18.0839,0.0467076,39.0688,145.373,0.99987,3.33088,0.380056,8.71992,6
6.98191,0.560659,0.0975875,8.45249,0.0937386,23.9258,188.212,0.997475,3.39848,0.475293,9.20986,4
7.21438,0.245425,0.286534,14.1054,0.0546598,55.75,202.229,0.998586,3.12521,0.379022,8.91189,8
8.48046,0.228257,0.272543,10.9615,0.0331025,29.3365,92.1975,0.995151,3.0209,0.392904,10.4789,8
6.73608,0.303044,0.0932592,1.40348,0.0409172,56.1469,148.509,0.992003,3.19806,0.464342,9.99733,6
5.9093,0.281436,0.38865,1.4148,0.030179,47.0606,149.54,0.988394,3.08291,0.624693,12.9223,8
7.00424,0.343386,0.296569,1.74802,0.0458842,43.6334,140.704,0.991404,2.99129,0.447096,10.8832,5
7.86195,0.283789,0.406232,4.83606,0.0589836,31.4142,151.964,0.996686,3.27002,0.502687,9.73945,5
6.94274,0.263883,0.252781,10.8258,0.0380992,38.0278,186.996,0.997889,3.4623,0.584406,10.3165,8
4.93382,0.167935,0.552642,1.13469,0.0266683,24.2774,111.311,0.990668,3.48062,0.38841,10.8114,8
6.27973,0.263479,0.17295,7.80563,0.0482672,44.5173,187.864,0.996311,3.23509,0.469117,8.95913,6
7.27186,0.241214,0.286712,2.13136,0.0363007,37.5493,100.859,0.99221,3.26268,0.645237,11.0243,8
6.69179,0.480082,0.331041,1.32085,0.0195006,22.9509,121.109,0.98892,3.15154,0.528429,12.593,8
6.85424,0.293873,0.322721,1.57331,0.0324037,18.1028,130.261,0.990869,3.05065,0.616861,11.1756,5
6.05762,0.239965,0.249185,1.37185,0.0436118,23.0607,116.778,0.991907,3.37996,0.591087,10.8909,5
6.28824,0.124367,0.421507,1.25003,0.0421728,62.2689,144.554,0.990775,3.13282,0.722591,11.1569,8
7.64811,0.414868,0.314831,9.46006,0.046947,21.3512,218.229,0.997017,3.06902,0.61785,9.17224,5
7.44891,0.33162,0.366904,2.48285,0.0511836,25.505,129.89,0.991138,3.31806,0.534243,12.562,5
7.69361,0.387342,0.469481,11.7107,0.0833689,54.9945,171.749,0.99772,2.90497,0.509654,9.00376,6
6.5249,0.41233,0.222443,5.22823,0.0519501,48.7729,143.375,0.994562,3.14063,0.616469,9.14648,6
7.22564,0.192857,0.226893,1.52451,0.0447734,16.9477,99.5705,0.994712,3.35638,0.526442,10.0042,6
7.73169,0.280302,0.38745,8.83234,0.0334601,7.40817,115.299,0.993426,3.04927,0.373419,12.1208,8
8.03724,0.191926,0.48558,11.8544,0.0470647,46.9329,215.471,0.996725,3.08417,0.464206,9.85143,8
6.67659,0.289306,0.2441,1.60887,0.0389025,30.3166,141.319,0.993066,3.34481,0.6116,10.3266,8
6.71107,0.264043,0.249946,8.01324,0.0530944,52.7697,200.497,0.996265,3.23287,0.432442,9.26111,6
6.40613,0.272579,0.44667,8.33254,0.0489241,53.5606,198.91,0.995439,3.1774,0.489326,9.42199,6
8.22598,0.322616,0.265502,1.9819,0.0615816,26.7568,87.8601,0.989714,3.10127,0.469003,12.6814,5
7.40883,0.161137,0.26261,15.1893,0.0517674,23.3279,136.472,0.99848,2.88956,0.4263,8.68078,8
7.67977,0.276594,0.337065,15.5963,0.0567913,30.5689,113.152,0.999536,3.28149,0.504413,9.60186,6
6.84417,0.300531,0.221096,6.42321,0.0568956,41.1845,191.754,0.998721,3.17988,0.499088,9.17123,6
7.59844,0.337218,0.387071,7.46862,0.0400809,46.2824,216.265,0.996547,3.10096,0.532184,9.17432,5
7.2374,0.23186,0.38766,14.3137,0.0577827,49.0008,189.592,0.997979,2.99479,0.474246,9.03667,8
6.91782,0.46046,0.19728,16.713,0.044779,50.0362,183.144,0.998774,3.08982,0.557393,9.45423,6
6.8988,0.253437,0.256824,5.23936,0.0242613,35.7289,136.628,0.99486,3.15696,0.721126,10.6719,8
7.06293,0.272852,0.739352,1.51571,0.170329,32.5002,120.347,0.993475,3.04114,0.451823,9.25471,5
5.06934,0.164736,0.55206,1.46333,0.0245679,23.7953,119.364,0.990564,3.4862,0.387311,10.7886,8
6.39049,0.374842,0.205828,5.36742,0.115094,56.9198,185.83,0.994521,3.24255,0.436017,9.46708,5
6.98257,0.435646,0.238256,12.4988,0.054509,69.2351,206.909,0.997213,3.05253,0.504669,9.46002,6
6.4464,0.156392,0.434348,1.50821,0.0483064,38.3893,121.775,0.990556,3.11707,0.747639,11.2703,8
7.34619,0.21393,0.490714,2.1161,0.0354505,45.1535,149.83,0.991158,3.32599,0.430413,12.5782,8
7.67366,0.282272,0.339489,15.1749,0.0581305,30.5462,118.717,0.999982,3.27317,0.488839,9.52145,6
6.0892,0.246931,0.469672,15.7504,0.0532068,24.637,97.1862,0.997885,3.0762,0.447995,9.14754,5
7.08662,0.154902,0.364776,11.2258,0.0423543,19.9898,88.6714,0.996009,3.1696,0.438686,10.8804,8
6.7221,0.335434,0.430594,1.88059,0.0397324,29.5312,113.052,0.990031,3.22308,0.425682,12.6878,5
6.79553,0.246272,0.300764,1.33668,0.0610879,31.1685,216.771,0.993932,3.15972,0.532284,9.62064,6
6.77956,0.353277,0.236031,4.48981,0.0390904,23.8195,122.87,0.99085,3.27117,0.34447,12.7313,8
5.77458,0.255291,0.181646,0.930422,0.0319389,38.9908,114.094,0.990914,3.41435,0.400198,11.1369,8
7.99299,0.270906,0.322488,1.19251,0.0492423,40.4107,104.888,0.990004,2.99955,0.446376,12.4913,5
7.06656,0.217478,0.284933,1.39684,0.0368575,28.8469,112.203,0.992416,3.11333,0.546802,10.4393,5
5.95495,0.239146,0.303526,2.40513,0.0323327,28.1404,93.5288,0.992321,3.38084,0.692593,10.9546,8
9.9623,0.206067,0.395967,1.37846,0.0471563,17.4462,151.717,0.993634,2.99422,0.411537,10.4164,5
9.16892,0.316052,0.417365,1.28074,0.0466006,13.9474,184.94,0.995052,3.0758,0.472455,9.60438,6
