% drifting stream generated from small.arff
% seed: 5
% length: 800
% sudden drift begins at instance 400 (0-based; the 401st @data row)
% pre-drift class weights: 0=0.4256, 1=0.2292, 7=0.1548, 4=0.1042, 5=0.0595, 6=0.0149, 2=0.0060, 3=0.0060
% post-drift class weights: 0=0.0578, 1=0.1073, 7=0.1589, 4=0.2361, 5=0.4131, 6=0.0149, 2=0.0060, 3=0.0060
% post-drift label map: 0->1, 1->0, 7->4, 4->7, 5->5, 6->6, 2->2, 3->3
% pre-drift realized counts: {'0': 165, '1': 93, '2': 1, '3': 2, '4': 48, '5': 28, '6': 3, '7': 60}
% post-drift realized counts: {'0': 35, '1': 21, '2': 3, '3': 2, '4': 64, '5': 176, '6': 5, '7': 94}
% jitter is gaussian noise at --jitter * feature std; class values match the source file
% class codes are categories (see learning/resources/data/README.md); do not use them as features
@relation small_stream
@attribute A1 NUMERIC
@attribute A2 NUMERIC
@attribute A3 NUMERIC
@attribute A4 NUMERIC
@attribute A5 NUMERIC
@attribute A6 NUMERIC
@attribute A7 NUMERIC
@attribute class {0,1,2,3,4,5,6,7}
@data
12.7773,40.7468,47.9427,4.97542,63.9164,7.24294,75.6137,1
58.4146,27.6296,48.5801,4.9963,64.2629,75.0082,78.9285,4
45.7112,34.1604,48.3837,5.0164,55.7424,56.2707,61.0496,0
77.0495,55.3683,46.9974,5.00332,51.4338,77.6895,74.7298,4
78.2714,57.3492,48.3389,5.02666,50.8709,78.1674,71.6011,4
37.3864,55.5765,48.5149,5.0164,43.0266,44.4589,53.8725,0
62.7548,50.4074,47.7551,5.00116,63.9236,74.8299,77.0629,4
43.6573,35.2203,47.6293,4.9987,43.9468,52.7241,59.2175,0
73.6399,84.5021,48.1881,4.989,84.2467,57.8016,28.9925,5
34.2945,37.1707,47.9158,5.00449,45.8784,64.1121,70.376,1
67.7095,77.5099,48.5089,5.00907,83.4848,47.012,25.6709,5
2.67306,31.1635,48.107,5.01341,40.9142,28.2682,39.4882,0
3.83153,37.2827,48.8351,5.00832,66.9505,64.2851,69.332,1
66.4782,59.8188,47.4861,5.00912,51.5519,38.3672,39.8513,7
35.4259,41.3565,48.2357,5.01157,42.2322,33.5465,42.6071,0
5.84645,67.3874,48.4821,4.99328,30.8963,94.2233,91.0792,1
33.7168,52.6977,48.2543,4.99236,44.3226,34.9849,45.4006,0
69.3879,84.6409,47.784,5.00436,3.43845,55.8862,31.7747,7
67.0978,74.9538,48.5012,5.001,83.9946,46.787,24.8676,5
12.4936,42.1854,48.4688,4.99844,61.4423,5.64542,75.8514,1
90.875,41.6324,47.5129,4.99848,52.7965,74.9703,76.2516,4
42.493,58.5135,47.6356,4.98102,50.6922,46.2041,55.7117,7
27.2555,40.6187,47.9825,4.99747,37.481,39.0906,42.5088,0
63.3391,80.4328,46.8515,5.00651,36.9364,39.4514,43.6375,7
6.10902,76.2481,0.61857,5.0023,76.1514,57.9668,52.1961,5
35.5019,48.8464,47.767,5.01112,52.0534,15.0431,28.1013,0
8.20648,4.69194,47.7196,5.01216,57.4853,85.427,81.0968,1
34.0348,36.4383,48.0473,4.99081,46.6368,65.2009,69.6034,1
48.2399,29.5899,48.4303,4.9932,55.2229,26.1789,33.8415,0
66.5167,54.3214,2.03415,4.97979,67.4543,59.3807,15.174,6
39.797,48.0236,47.5156,5.02848,50.3171,44.0509,50.3998,0
37.0855,47.0079,48.114,5.00712,39.6282,74.4768,79.1883,1
24.1736,40.2772,47.9743,5.00628,49.6917,22.93,32.9494,0
47.1728,45.5072,48.021,4.99655,7.27923,76.5325,6.73753,1
51.7668,43.2444,47.9084,4.9984,15.986,30.3203,41.155,0
42.7841,50.3881,48.31,4.98622,42.2856,48.6582,53.5018,1
62.262,45.2261,47.8377,4.9771,65.6311,61.4391,65.9684,4
64.0881,77.6125,48.6776,5.00512,4.75417,34.5026,38.2031,7
0.811966,45.7557,47.8782,4.99912,56.9285,77.0615,81.3689,1
68.2135,75.5331,46.9085,5.01693,83.9865,47.1927,27.6912,5
42.854,36.4864,47.7644,5.0235,53.6735,36.3288,43.3953,0
43.3544,2.64368,47.7995,4.99975,57.3258,74.458,77.742,1
24.5075,35.0269,47.8174,4.98839,30.2642,20.3932,31.5582,0
36.6769,43.4138,48.9226,4.99268,41.8188,39.8095,47.3372,0
85.3812,38.9439,48.0376,5.01044,58.9565,88.2498,8.60324,4
40.3508,4.42618,48.1118,4.99332,55.6578,18.9806,2.04897,0
37.8339,42.2905,48.2155,5.00206,54.2018,31.4627,41.0995,0
6.56858,76.2313,0.80208,4.99279,76.4502,59.1013,53.0665,5
7.32286,45.0824,47.9358,4.98989,55.6655,79.6216,74.0951,1
53.7345,46.9391,47.6001,5.00232,28.1238,33.1001,42.3226,0
62.4312,50.2284,47.6973,5.00408,65.7224,70.9205,75.4116,4
34.1581,46.7858,48.3483,5.00834,51.3123,31.452,40.8152,0
85.8581,38.775,48.2918,4.99393,59.0091,87.9564,9.23258,4
72.088,47.0771,48.4006,4.99583,52.2057,65.9073,6.29572,1
27.4863,27.3504,47.3496,4.98384,43.6622,21.2577,34.4509,0
30.0079,28.3774,48.2534,4.98784,3.25435,41.2266,3.99799,0
75.7608,57.2557,0.898128,4.99396,38.5471,54.4721,1.80039,6
65.7211,88.1446,48.7176,5.0103,73.5132,4.29445,23.4397,5
29.0996,35.5513,47.4615,5.0052,52.4421,74.9277,79.6271,1
48.6834,58.5956,47.9672,4.99797,52.3663,73.3933,78.3013,1
30.1139,4.25091,47.7378,5.00891,57.1149,82.5539,85.126,1
69.1356,64.2552,48.2352,5.00088,41.4072,4.80608,25.4717,7
63.7643,84.4781,48.2604,5.00402,37.76,45.6403,3.20964,7
17.5948,3.62627,48.0793,4.99763,46.7848,25.0188,35.7213,0
16.9529,43.0004,48.1974,4.99788,54.4559,27.1179,36.207,0
37.1291,31.7659,47.6995,5.00407,45.2442,24.3022,35.3208,0
50.9741,57.0124,48.488,5.00289,41.9863,46.7159,56.2691,0
51.1235,62.5262,0.248007,4.99398,55.6095,69.9755,74.4876,4
59.8362,50.1673,48.5913,5.02657,51.8707,46.6234,35.5475,0
74.5264,84.1368,47.8076,4.9901,36.6865,50.7604,33.308,7
43.9941,54.4717,47.8462,4.99711,58.341,69.8517,78.1113,1
45.0356,53.9831,48.0932,4.99407,5.36209,45.8643,54.7859,0
12.1861,41.2844,47.514,5.01473,63.4822,5.37556,74.3573,1
6.7738,47.1543,48.59,4.99698,56.0143,78.2643,73.4746,1
66.5606,72.4222,47.5545,5.00176,30.6443,37.8898,43.5727,7
44.6835,4.0806,47.9219,4.99346,37.9725,26.5929,38.8803,0
56.0571,34.5369,47.1806,4.98782,55.7234,86.8498,81.7471,1
78.9601,67.4881,47.5615,4.99907,83.3272,4.9584,29.5817,5
58.0666,58.118,47.9024,5.01708,56.2526,8.87616,80.5617,1
74.4488,54.571,48.0186,5.00722,51.525,78.2794,72.7824,4
63.6059,52.136,47.7322,4.99869,65.677,53.0534,31.9704,5
8.99623,53.0028,48.1834,4.9947,8.43127,86.1409,86.5416,4
65.67,86.7587,48.0228,5.00387,71.5648,4.0928,26.3878,5
47.7052,41.6845,48.0565,5.0004,49.8659,5.16742,5.26316,0
43.565,32.0927,47.4983,4.99432,33.2183,45.7118,50.5783,0
42.0631,61.1506,48.4539,5.00855,52.767,49.6961,56.3404,7
41.7503,50.6852,47.7489,4.98027,52.6204,75.0805,78.2413,1
32.6356,40.881,48.4987,4.98953,34.5925,27.0945,39.8292,0
45.5672,34.6319,48.182,4.99889,44.2425,52.2633,59.3116,0
56.0828,47.0609,48.951,4.99887,57.0187,81.0401,7.62527,1
46.0233,29.0711,48.1455,4.99857,56.0818,22.0897,34.8312,0
12.5549,43.0038,47.7367,4.99666,63.3827,8.42482,73.0473,1
71.1352,85.6233,47.5973,5.01807,16.7343,54.9536,20.2296,7
65.4087,58.5651,48.8293,4.98905,46.7086,47.9836,53.074,7
58.9126,6.50242,48.0151,4.99898,59.0786,71.8724,76.8994,4
41.0908,51.2683,47.8811,5.00704,52.9027,75.0619,77.824,1
81.1907,35.9121,47.9163,5.00043,61.7656,72.7356,71.6401,1
67.9975,62.825,47.9184,5.01846,73.2126,1.91513,4.25598,5
66.1259,45.1689,48.1817,5.00857,66.823,61.7362,66.24,4
37.5995,3.31245,48.1504,4.99121,63.1288,24.6923,34.4716,0
52.568,49.6961,48.3995,5.0025,53.7098,15.3975,25.9769,0
49.6452,49.4727,48.2217,5.0225,52.0575,14.7509,26.1477,0
7.14728,62.0513,47.86,5.00654,53.5186,69.4533,72.1852,1
20.0721,50.4093,47.6963,4.99157,5.69685,29.2893,39.4815,0
35.8805,55.2291,47.9751,4.9942,39.7071,38.2213,48.0405,0
37.102,43.8481,47.7136,4.99313,43.4092,39.1325,48.8218,0
77.8318,40.6247,48.1639,5.00336,66.8973,80.1367,82.7474,4
42.516,51.8302,47.9746,5.01263,54.6708,76.1553,78.6067,1
62.613,7.69536,47.2661,4.99831,45.4039,31.8783,28.5864,7
23.114,57.7366,47.9522,4.99973,36.5855,53.8706,58.2394,0
25.3562,26.0551,48.2157,5.00584,34.6271,25.1418,36.0549,0
65.7714,78.7535,47.6995,5.00543,4.68755,36.2544,38.2952,7
69.9145,59.7588,47.81,4.98595,45.4461,42.4598,53.2086,7
36.1944,40.9657,47.6462,5.00473,54.9984,32.3339,41.2781,0
73.7764,86.4115,47.8384,5.01253,15.4617,54.4154,22.7286,7
32.5263,47.0215,47.6912,4.99982,53.0435,18.0744,27.5691,0
82.7573,54.9767,48.3254,4.9967,74.2969,91.1448,9.22671,4
39.9994,45.9715,47.5993,5.00271,39.4052,74.1773,79.1002,1
2.88001,51.1513,47.5298,5.00566,39.9565,60.9514,34.1829,1
27.8411,42.3991,47.2583,4.99859,37.3828,37.9349,44.1174,0
61.1813,42.129,48.6268,5.0103,47.8509,76.4616,9.98241,4
18.3317,40.5004,48.3292,4.98843,45.7878,41.8486,4.08765,0
36.7425,55.4283,47.9041,5.00953,43.8531,44.9916,53.4113,0
36.1772,39.5269,47.1772,4.99489,47.9844,21.2588,23.4284,0
3.86211,41.4545,47.0735,4.99816,55.8793,21.5534,34.6261,0
27.1955,5.18439,48.3275,4.9945,35.302,26.7689,37.6725,0
7.32791,57.4945,48.2125,4.99932,70.7079,60.3711,66.8768,1
67.2402,57.2086,48.1018,5.01132,46.6513,44.4934,51.929,7
10.9745,5.59148,47.6952,4.9913,56.9216,73.0692,69.3056,1
73.9056,35.3249,48.0984,5.00003,54.194,90.8233,91.0999,1
47.4266,53.9331,47.7535,5.02164,57.1053,69.6681,73.5387,1
28.6097,27.3203,48.4575,4.9919,43.2606,24.8848,32.0964,0
4.89563,46.2883,47.6704,4.99864,51.0158,50.4996,55.806,0
63.7403,71.3558,48.0063,4.99184,66.5063,40.3384,26.9446,5
82.9921,55.3464,47.3706,4.99944,73.8828,90.5944,7.74978,4
5.14205,31.2521,47.2462,5.01299,41.2761,28.4014,39.0805,0
28.5148,37.421,48.2763,4.98611,4.10221,34.14,42.1252,0
44.9206,54.5872,47.6776,4.98836,4.97886,45.3224,55.8192,0
27.0603,40.9361,47.9444,4.99643,36.895,40.2898,43.2445,0
42.3176,35.8537,48.2738,4.98182,58.566,13.5613,27.2115,0
29.814,26.8325,47.8349,4.97923,4.87528,41.837,7.68741,0
31.6735,44.7827,47.7475,4.97774,37.6301,24.5645,36.0539,0
21.4203,44.5091,47.8158,5.00422,49.6902,15.267,27.6899,0
40.2463,52.5041,48.8125,4.99801,59.004,2.54981,32.7305,0
62.1878,40.0195,48.6149,4.99038,56.9437,79.8846,79.6574,4
60.9845,64.928,47.7329,4.98496,38.3489,44.2468,34.7286,7
63.6559,46.3275,47.7015,4.99363,48.4244,73.7755,76.6749,4
25.0285,3.93127,47.3801,4.97998,47.3257,34.5478,40.8579,0
86.0794,55.093,48.5058,5.00531,63.0416,79.6367,83.4286,4
66.7987,63.9941,47.921,4.98908,73.662,4.21639,2.9702,5
73.181,35.6558,47.7263,4.99823,52.4318,89.6145,93.5976,1
30.0498,46.0076,48.5524,5.01483,41.3038,23.5022,31.3245,0
79.3478,33.298,47.5759,5.00224,57.3911,77.7863,78.5658,4
68.1391,83.3592,47.4876,4.99642,37.8266,64.1167,56.8609,7
49.905,43.4721,48.1539,5.01594,48.6323,3.13009,4.68793,0
62.2117,64.3037,47.1217,4.98108,38.0187,43.5146,36.2294,7
56.2115,38.9587,48.2937,4.98834,4.83881,49.526,32.0903,4
53.2164,49.7995,48.1366,5.0186,4.34536,84.5043,89.3423,1
54.2186,4.53281,48.1852,5.00135,49.0613,34.4021,46.4469,0
34.197,50.3507,48.1203,4.99165,67.2833,8.5004,7.6292,1
7.87946,37.8552,1.14351,4.99443,50.2789,82.1676,83.5913,3
6.60119,53.7859,47.8255,4.99625,6.70387,84.9324,87.7509,4
64.9702,45.4169,47.6891,5.00231,59.397,4.09313,5.09765,0
37.5113,44.7491,48.2112,4.99141,48.1928,24.1568,29.486,0
67.1452,80.1312,47.9545,4.99781,38.8013,65.9949,56.8754,7
59.6144,50.1089,48.1323,4.99805,53.0063,45.8184,36.2396,0
63.232,50.066,48.1995,5.00113,54.8573,79.2232,78.6602,2
43.8109,37.2902,47.16,4.97879,52.0487,34.3563,44.869,0
34.5995,48.9182,48.0578,5.02795,56.7488,2.2627,47.1505,0
16.159,43.2875,48.579,5.01028,54.5486,26.9614,36.9071,0
4.90631,44.6054,48.0307,5.01502,39.2845,22.0768,2.87769,0
12.0342,42.4294,48.5168,5.01181,61.8372,6.8088,74.65,1
37.0168,52.1026,47.9076,5.00743,42.3411,43.7,35.1649,0
66.5225,81.0364,47.7572,4.98816,24.2896,42.8469,23.6365,7
33.7752,32.9085,48.2257,5.00334,44.9791,3.32091,28.6178,0
25.0756,43.857,47.5813,5.00181,49.0125,23.3586,34.6045,0
67.762,79.089,47.5374,4.99071,43.6035,44.9697,41.2724,7
66.7175,39.5305,47.8695,4.99306,35.8413,37.7991,45.0624,0
62.9492,42.4375,47.8105,4.98565,58.5949,79.1126,80.5097,4
7.41811,37.898,48.1642,5.01103,65.889,66.727,66.8024,1
63.3739,66.5623,47.9087,4.99786,63.7742,40.9433,27.1207,5
4.54017,38.3749,47.7172,4.99571,57.7429,41.201,50.6297,0
26.3272,37.7,47.6043,5.0062,51.3054,76.3981,79.5123,1
-0.23262,49.0515,48.2925,4.99811,40.4306,67.3701,21.4853,1
37.0135,40.5717,48.1433,4.99527,50.8533,72.1397,74.0519,1
68.2213,57.9515,48.1662,5.02253,46.9586,35.0411,30.9288,7
67.4034,70.9225,48.0132,4.99008,41.081,5.70668,32.6986,7
86.8265,51.3679,48.3068,4.99463,61.8896,76.7507,79.2034,4
77.8269,56.8754,47.7903,4.98969,88.8907,53.5695,2.76162,5
53.5951,46.9902,48.0046,5.00452,28.3224,32.1916,43.8697,0
56.3468,64.9183,48.4051,5.00849,76.9806,37.4743,44.7572,5
66.7476,7.66854,48.2004,5.01536,47.5201,45.1903,34.0398,7
32.965,32.3684,48.3095,5.00016,7.31802,5.86625,1.82625,0
41.8871,27.5014,47.9192,4.99712,41.8504,24.9867,39.3173,0
63.0632,42.5144,47.5647,4.99845,57.2502,81.7022,79.992,4
68.1538,82.4731,47.9901,4.98647,37.4055,63.8117,55.9438,7
22.9,40.8747,48.0587,5.00213,49.6152,23.8408,35.7791,0
42.1117,39.7082,47.4782,4.99957,54.5961,33.0878,43.0685,0
43.5289,36.5001,48.8024,5.00651,45.1333,51.3126,60.1907,0
66.3814,48.183,48.2823,5.01219,54.3938,7.54345,75.1738,4
83.9237,54.1274,47.7761,5.00221,62.7322,81.449,82.5491,4
61.0882,53.1938,47.2038,4.99939,53.6785,66.677,53.7074,1
58.0411,38.2204,47.8624,5.00552,6.15677,50.4251,32.3461,4
51.656,35.6538,47.6192,5.00249,34.9143,36.3913,44.6368,0
47.0294,26.6434,47.3681,5.00261,55.5078,2.34422,25.1109,0
34.5574,28.8652,47.8861,4.99249,41.3517,35.2725,42.6412,0
25.0495,47.1251,48.3998,5.00665,44.3521,16.8895,29.6353,0
71.8304,56.5302,47.5902,5.01106,47.7068,35.7164,29.3461,7
65.0536,75.2865,47.8458,4.99702,64.0329,71.5631,65.5876,1
59.5372,6.20711,48.0139,4.99516,43.3094,37.3458,38.6984,7
57.6697,40.8975,48.2131,5.01314,5.57662,48.2249,34.2514,4
65.9765,60.1082,47.718,5.01096,50.9805,35.1728,38.5359,7
3.68401,43.8039,47.4953,5.00251,45.6377,50.2255,57.5083,0
71.2562,50.816,48.3162,5.00806,64.4885,2.63398,100.821,1
63.2613,77.2937,47.9649,5.02108,46.4637,34.8726,37.4611,0
60.4446,72.8728,48.0197,5.00809,51.2757,31.8668,31.8653,5
50.5318,5.34006,48.0167,4.99242,45.3678,30.3902,34.9885,0
49.0761,39.5929,47.3926,5.00238,54.3367,77.5507,81.6197,1
44.8547,34.8695,47.6097,5.01168,3.08851,32.8104,44.5237,0
49.7751,40.5992,47.6402,5.00647,51.1179,7.84643,89.4038,1
68.2677,8.33557,48.1905,4.98876,47.9789,55.8474,27.3872,7
79.2732,68.6238,48.6789,4.97506,82.598,3.16492,30.5501,5
54.3869,47.8268,48.4292,5.01167,58.4634,78.9967,8.47009,1
6.59988,74.2767,1.29252,4.98913,77.7587,60.6692,56.2669,5
28.8144,42.5828,48.4429,4.99179,48.2136,39.6138,47.5314,0
28.5812,2.3953,48.095,5.00898,43.9544,3.30335,15.6409,0
56.3787,54.4604,47.7845,5.01313,55.5525,6.64202,72.4947,1
3.23673,5.49586,47.5949,5.01693,64.0299,81.1439,83.7978,1
22.6593,47.0903,48.5128,5.01215,58.7669,86.6926,88.8523,1
65.0955,56.3881,47.8453,5.00891,8.8151,33.4571,25.5868,5
37.3683,51.199,48.4152,4.9948,61.1633,71.0221,73.9611,1
62.2932,55.6618,47.8437,4.99715,34.3294,35.6421,31.0605,0
5.77113,40.7764,48.1703,5.0106,55.314,22.787,32.6354,0
63.602,4.91339,47.5985,5.00905,43.8735,33.6421,27.2906,7
55.9332,52.6885,47.9167,5.02133,35.8057,36.0712,46.3843,0
35.6443,43.8052,48.1114,4.99899,46.399,86.3246,90.8227,1
75.3333,83.8988,47.846,5.00661,36.3306,53.6009,32.5459,7
72.1642,6.43762,47.4364,4.96697,64.0972,65.3317,67.7206,1
37.6287,45.7517,48.2614,4.98743,38.2617,78.2622,16.1843,1
79.397,35.3252,48.3212,4.97422,48.1254,83.0301,9.90492,4
33.1897,40.274,48.0843,5.00617,52.6789,27.5668,38.8625,7
60.5427,41.6697,47.8516,4.99301,60.418,78.1602,81.3147,4
69.1537,89.9146,47.4877,5.01525,72.3457,4.97772,25.5772,5
64.923,44.3829,47.7975,4.99277,67.8228,61.6364,67.0043,4
66.8136,56.3307,47.9732,5.00249,33.4342,35.8235,29.3891,0
36.1457,55.6545,48.2592,4.99056,42.2289,44.5989,54.2824,0
53.8096,41.3434,47.5015,4.99669,15.691,28.2237,39.0522,0
19.6251,37.9272,48.4633,4.99232,45.1851,43.3463,7.67249,0
29.9408,53.5366,47.9828,4.9997,41.4573,31.7025,40.8255,0
68.5509,50.7332,47.543,5.01543,64.0865,0.933459,101.287,1
85.4943,53.3426,48.5718,5.00658,76.4502,91.8536,6.72326,4
10.7795,42.6134,48.0005,5.01645,64.6245,6.29486,71.3057,1
25.7854,4.37431,48.1888,4.99415,48.4983,32.0189,41.4316,0
77.8054,35.1291,48.2727,4.99438,46.8323,84.0933,6.49781,4
33.6343,49.7049,48.1422,4.99847,55.4244,3.17034,46.5331,0
86.3061,55.0135,48.713,4.99462,63.3322,81.5147,81.5248,4
27.264,3.07747,48.3538,4.99911,43.9927,2.59092,16.676,0
57.3997,67.8566,48.6029,4.99218,76.4705,35.4476,43.9834,5
65.9109,77.0588,48.0459,4.9988,42.8244,44.6057,43.0638,7
62.838,84.4134,47.4732,5.00033,4.71035,38.3627,19.0102,7
23.0437,55.4001,47.8857,4.98741,61.892,34.7623,43.5008,0
47.1217,47.0126,48.5787,5.0053,63.5217,75.3397,77.1463,4
65.8505,83.8943,48.1685,4.99519,75.6189,53.1408,37.2296,5
55.1259,47.8895,48.0405,4.99824,56.0959,77.1272,6.86714,1
25.7677,33.015,47.857,5.02198,38.4099,4.01298,4.36428,0
21.9876,59.1149,48.5882,5.00179,37.4329,52.9622,56.814,0
67.5413,54.1128,48.7234,5.00813,34.29,37.8979,29.7489,0
38.7261,51.7937,47.3819,5.00079,43.1919,40.7083,35.1127,0
64.5772,65.861,48.1202,5.02121,39.7691,37.8897,4.04466,7
5.93812,4.32338,0.943619,4.98872,55.6858,76.6984,7.94962,1
70.0504,51.1863,47.4578,5.0042,63.2767,0.0840714,101.04,1
41.6183,59.6064,48.156,5.00866,53.6308,49.4401,55.4599,7
66.8739,72.2918,47.9265,5.00137,31.5283,39.5477,42.7186,7
45.9482,54.3621,48.1485,4.98349,56.6899,67.9516,74.4097,1
70.6253,4.21111,48.8981,5.01219,70.5659,5.5929,73.1095,1
2.82692,57.2606,48.413,5.00223,70.0873,61.5534,67.1814,1
43.6821,51.2603,47.9859,4.98607,42.7557,46.7921,56.4407,1
61.3424,56.7942,48.1557,5.01657,50.6521,9.68257,1.66433,7
24.215,48.2868,48.1623,5.00872,44.1249,17.1786,29.3958,0
72.9358,25.9798,48.0261,4.99292,56.4632,73.7531,76.8079,4
63.4563,74.1615,48.1783,5.01001,45.685,34.662,38.6608,0
76.5903,41.5764,48.3513,5.00723,6.55888,58.0812,61.9312,4
60.7539,55.7751,47.2721,4.99893,54.4551,7.96507,81.546,1
50.1913,46.4942,48.5336,4.99251,59.7093,29.8415,40.2966,0
70.5624,50.8994,47.5647,5.00808,63.7991,2.79106,97.3481,1
37.8347,51.5956,47.4381,4.99776,42.183,41.6923,37.6648,0
68.1702,53.5217,1.25784,4.99851,66.2649,58.5317,16.204,6
35.2738,53.0264,48.0822,4.99603,40.2679,36.6049,44.3207,0
21.55,47.7668,47.2895,4.9981,59.7276,85.8646,88.831,1
23.2962,48.7767,48.8831,5.01379,59.5393,87.7543,87.88,1
43.9308,57.1911,48.4096,5.00785,52.9507,51.3053,54.2734,7
45.7114,61.6504,47.5956,4.98954,47.5263,86.1665,89.1251,1
63.2327,69.5574,48.0484,4.98898,65.7729,42.1073,27.6879,5
16.312,38.3289,48.3672,4.98609,44.0391,41.3093,5.33415,0
48.6495,46.7092,48.4233,4.98289,21.1092,16.6165,26.9562,0
40.3897,33.6538,48.003,4.9881,58.4298,14.2025,28.7959,0
66.8708,66.398,48.1631,4.99605,46.9145,2.12095,33.6592,7
21.5783,33.7085,47.8848,5.00331,49.2729,29.931,38.7749,0
54.3226,56.897,48.5953,4.99369,41.9212,48.8918,50.633,0
34.4402,50.713,48.4828,4.99215,68.6635,10.4252,8.37926,1
64.3929,76.72,47.9704,5.01897,45.0666,33.505,38.6118,0
3.57301,5.27646,47.9845,5.01532,43.6936,39.9285,47.559,0
82.9715,47.6768,47.5315,5.01877,64.1501,75.9315,79.671,4
4.6986,3.64865,47.105,4.99656,65.1728,81.3807,84.9556,1
4.22281,45.1584,47.2579,5.02096,38.9604,23.5782,-0.112569,0
67.7433,44.0727,48.0864,5.00067,58.6844,73.3632,77.034,4
65.3724,85.8862,47.969,4.99594,34.1108,40.0021,36.7593,7
68.4043,7.78312,47.7627,5.0082,45.8382,57.3435,24.8771,7
68.1441,40.1471,48.1551,5.01255,57.0936,78.0974,79.3582,1
48.8972,42.5539,48.4903,4.98997,44.6818,25.5831,35.1415,0
24.1939,3.29133,47.7609,5.01107,40.1767,28.6512,39.4016,0
66.8104,43.272,47.6875,4.99399,58.811,75.3216,76.4446,4
44.5253,52.8461,47.6089,4.98917,47.5216,25.275,35.7322,0
37.4862,40.3501,48.0384,5.00459,48.3492,44.6424,52.7872,0
67.094,65.2816,47.815,5.00913,41.5293,4.4726,23.8998,7
41.9478,37.1672,48.4182,5.02306,47.4287,30.0796,39.0321,0
63.8622,75.8825,48.5727,5.02107,64.0771,75.1852,67.4914,1
44.616,60.6501,48.6797,4.99478,48.2455,86.6574,86.8412,1
22.2004,35.0873,47.4198,4.99328,50.9581,28.2425,40.367,0
34.3727,33.5381,48.4445,4.99387,38.5824,35.9333,43.4474,0
7.62755,45.5044,48.4079,5.00623,45.6012,82.6056,84.6124,1
70.3747,70.0251,48.0659,4.9999,2.90577,53.6749,37.7538,7
43.1993,34.7877,47.3324,5.00398,54.8609,55.0236,59.7832,0
20.0084,52.2477,47.5199,5.01929,3.25076,30.3397,41.3563,0
79.9454,36.3412,48.2842,4.99545,47.4363,83.2428,7.5491,4
69.8583,56.3714,47.8776,5.00358,49.3383,36.2234,33.041,7
29.0966,41.9253,47.1563,4.99906,37.6949,36.9933,44.1059,0
5.17874,47.6917,48.0465,5.00059,49.3609,50.9416,55.2763,0
70.5268,71.8165,48.0419,4.9703,66.5178,42.905,36.4752,5
62.1028,45.76,48.3895,5.01205,51.5301,82.1105,83.8702,1
32.8458,34.3436,47.7062,4.99009,40.795,35.2831,44.8448,0
63.4463,82.6339,47.6376,4.99964,2.764,37.1485,18.0137,7
53.284,52.8669,47.2715,4.99569,62.7203,75.1771,77.4967,1
18.2131,37.9295,48.4572,4.99463,44.6324,38.9053,4.13071,0
52.9356,45.452,47.6646,5.00093,28.017,32.5498,44.7293,0
72.8303,36.3612,47.8665,4.98964,52.0409,90.7214,91.1703,1
-0.430259,39.2892,47.9932,4.99721,41.6453,44.7121,53.7228,0
51.8673,36.7117,47.147,5.00388,34.7197,35.8829,45.1714,0
60.5248,84.047,48.8737,5.00588,46.3244,35.2043,3.67853,7
69.0948,5.7628,47.3711,4.9784,46.2907,58.5159,23.7435,7
32.5472,36.0906,47.8975,5.01013,57.2917,93.8821,96.4325,1
63.7877,82.2839,47.9978,5.01903,36.1045,46.2761,0.252635,7
51.2795,55.3785,48.2283,5.00756,41.4542,46.3156,55.0621,0
64.3931,58.5996,47.5727,5.00667,47.8393,44.8466,52.0225,7
5.53292,29.652,48.0993,4.9998,42.6412,33.502,43.3479,0
48.1006,48.5722,47.309,4.99337,52.8638,77.6751,69.2466,1
46.4215,55.7585,48.3934,5.00382,5.78972,47.6416,55.9409,0
53.0795,55.863,47.7267,4.99828,60.837,74.6154,78.584,1
37.3617,52.2658,48.2471,5.00974,42.0061,42.2218,36.62,0
60.2792,76.2931,47.9788,5.01229,47.2056,48.6334,54.1946,7
65.8257,88.899,47.5385,5.00494,72.9197,6.09309,27.3874,5
52.3673,38.9782,47.6668,4.9933,44.1828,28.7714,36.9863,0
25.5771,3.4147,48.2978,5.0042,44.5075,43.7986,49.2407,0
55.5147,54.2845,47.706,4.99506,37.1761,25.8611,34.207,0
8.91681,64.7792,48.606,5.00061,46.498,50.3,47.7767,7
52.4783,55.0289,48.0861,5.00237,62.5998,75.1231,78.4973,1
66.1738,86.2296,48.3728,4.99844,34.0409,39.7473,35.0962,7
72.9389,83.3492,48.2397,4.98921,86.1487,59.3473,26.9823,5
66.8502,66.5622,49.0764,4.99116,49.4392,3.80479,32.1854,7
48.6632,29.5984,48.2304,4.99051,54.4411,24.9626,34.9891,0
80.4426,52.5548,48.0835,5.00178,56.6173,78.2581,8.29984,4
29.9808,3.39072,48.5298,4.99812,45.1106,2.28266,17.88,0
35.8228,39.9983,47.7303,5.01296,52.076,34.3831,40.462,0
9.66704,49.5478,47.4851,5.00332,51.3968,44.7604,54.1723,0
62.0295,36.6126,48.7859,4.96485,50.543,34.7556,42.5035,0
62.577,73.9705,48.5313,5.00858,63.245,71.497,63.6579,1
7.11777,38.2509,47.9659,4.99803,66.6973,63.4664,69.9914,1
39.0534,2.08756,47.6241,5.01246,43.4108,30.7611,39.8239,0
64.2233,41.3587,48.6885,5.02502,48.3957,78.7114,7.96057,4
63.6214,9.14325,47.6252,4.99601,45.6202,32.067,28.9871,7
25.4677,46.8716,48.0867,4.99917,58.985,87.9153,89.4859,1
32.6913,37.4044,48.3304,4.99047,46.4217,66.9108,68.9151,1
2.0269,43.5929,48.0857,5.00808,35.0123,19.3004,32.0125,0
75.7874,53.7408,1.0331,0.995482,5.63411,46.8875,1.74965,3
49.7106,28.9334,47.9872,5.01002,56.6296,25.5433,33.1246,0
36.5855,41.0375,47.5045,5.01618,47.6145,47.0779,54.6491,0
26.3295,3.05132,47.5054,5.00003,46.9233,32.4447,41.0972,0
22.0345,50.8828,48.742,4.99722,6.08382,31.1485,40.8134,0
65.3172,52.3121,47.7047,5.00083,59.0815,66.3857,64.9988,1
62.5807,68.1196,47.9871,4.99531,64.4149,43.2031,31.8526,5
21.5117,34.5328,47.9575,4.9872,30.2113,18.021,29.6111,0
68.7026,59.8967,48.3091,4.98862,44.9961,44.1755,54.377,7
62.5702,50.6782,47.5181,4.98015,64.4195,69.9835,75.2499,4
6.67806,62.2278,48.2949,5.00326,46.2119,52.4896,47.1116,7
24.5135,43.2381,48.0084,4.98672,39.2285,28.2248,38.1387,0
63.8147,72.7092,48.2149,4.99106,50.0932,43.7304,18.6558,7
35.1448,50.575,47.5262,5.00245,67.9438,10.0571,8.68412,1
3.71715,56.238,47.2326,4.99879,70.0836,63.7906,65.231,1
7.02632,5.44127,47.7798,5.00308,46.0451,38.0029,46.6043,0
35.3893,39.112,47.8137,5.01168,47.9237,48.1341,56.2692,0
38.9876,33.2715,47.7897,4.98242,38.2427,33.0812,43.0988,0
53.1796,39.2178,48.5948,4.9896,43.8028,26.5189,34.7902,0
45.4545,27.2864,48.0829,5.01098,53.8728,52.8992,57.2817,0
23.1767,58.1929,48.2105,4.9978,61.8408,34.4899,43.0813,0
59.7941,54.855,47.1039,5.01225,57.0315,7.57957,73.7814,1
52.1757,52.9125,48.4537,5.0036,61.7797,75.0664,78.2692,1
4.24473,4.17929,47.8652,5.00337,63.8251,81.7054,83.3803,1
55.2201,52.8921,47.9311,5.02434,32.515,35.3418,45.8754,0
37.5512,51.2247,47.8613,4.99688,42.8134,41.5143,35.1861,0
73.2121,26.2365,47.9359,5.01033,56.4721,74.0387,77.5035,4
66.253,47.958,47.726,4.99251,54.5253,7.67266,74.8042,7
65.8132,48.1612,48.0538,4.98785,53.298,9.22143,74.5321,7
68.8428,64.0049,48.8328,5.001,71.2471,5.14994,1.98804,5
86.9835,40.3893,48.4246,4.99711,52.0156,72.8443,74.2934,7
43.0416,4.33772,48.0853,4.99617,58.7679,73.1751,78.5789,0
66.9529,86.6179,47.925,4.99135,73.0255,3.62936,25.6365,5
65.3065,56.1445,48.6092,4.99836,6.76035,33.1212,27.5568,5
46.784,44.868,48.4266,5.00246,6.29021,76.1434,8.38147,0
78.6372,56.1501,48.0015,5.01881,87.9588,52.4088,4.61028,5
64.2362,66.968,47.8635,4.99583,40.9431,41.0676,3.0777,4
74.6015,56.2344,47.8832,4.99776,88.4107,52.8061,3.04867,5
60.8843,82.1957,48.3617,4.98687,4.26854,38.8507,20.3962,4
72.9716,82.4551,47.558,5.0105,85.403,57.2768,28.5886,5
77.7921,56.7474,1.23338,4.97674,34.8086,53.0672,-0.999773,6
55.3891,6.64148,47.4,4.99858,58.2502,71.2639,74.9414,7
75.5668,56.9039,47.051,5.00934,88.0209,52.3784,2.37944,5
75.9622,54.6129,47.9765,5.00398,51.2502,76.3571,73.6823,7
66.5531,90.4132,48.5104,4.98863,73.3458,5.6348,25.3131,5
85.8792,49.6967,48.1379,5.02031,61.4593,76.7818,79.6978,7
65.7776,55.7768,48.1167,5.00338,6.61266,33.9236,25.5135,5
67.696,76.6121,47.8935,4.9968,83.3662,44.5243,26.7218,5
76.5244,56.7555,47.6594,5.02163,88.8634,52.7163,2.59747,5
28.1342,3.17883,47.5158,5.01837,70.2578,28.0037,39.6945,1
80.06,41.0161,47.9901,5.00539,66.2546,81.9149,82.7754,7
74.1421,10.8697,47.9216,4.98254,57.1613,52.2549,28.0833,5
67.7978,61.825,47.9576,4.99565,74.2963,3.02467,2.59903,5
56.7203,37.3666,48.0895,4.98064,4.84355,47.8904,32.2849,7
67.1381,60.3128,47.6647,5.0063,77.2788,39.4362,20.727,5
65.5432,58.5786,47.9411,4.99256,6.30346,34.5041,24.8849,5
66.917,76.0495,48.2609,4.98562,83.5842,46.083,25.7671,5
66.6112,86.8542,48.4316,5.0011,73.1409,6.28135,23.9398,5
73.8776,76.8545,47.9046,4.99711,83.4417,57.4019,1.45785,5
6.84782,75.3727,0.271205,5.01049,76.927,57.7446,52.7022,5
65.5652,57.4825,47.4986,4.98442,47.0549,45.3094,52.4343,4
85.5399,49.6023,48.1567,5.01692,54.9598,78.2784,73.1817,7
72.2637,40.8255,48.2855,5.00665,65.0187,77.0739,78.4967,7
70.6332,72.3092,47.9833,4.99196,68.9112,44.329,35.7861,5
79.9409,33.0408,47.3849,4.99303,57.9379,75.7892,77.7835,7
75.9543,75.172,48.2571,4.99445,85.2012,55.821,4.27443,5
58.3282,74.7136,48.3148,4.9975,51.2411,33.6605,33.2615,5
66.921,75.3196,48.3847,4.98971,82.8817,46.019,27.3094,5
73.3786,36.597,48.213,4.99864,64.349,7.74135,71.9815,7
68.4069,57.351,48.6356,5.00364,75.242,39.4152,22.4316,5
73.1979,9.15872,48.1787,4.98445,57.6542,51.4369,29.4738,5
70.0738,69.7447,47.4901,4.98681,67.7372,44.591,36.4929,5
61.4354,58.4342,47.9525,4.988,49.3038,6.75919,0.481013,4
67.0412,70.4422,48.1126,5.00282,41.1648,4.85362,36.4289,4
83.7134,47.3911,47.8239,4.99505,64.6849,77.2658,80.4018,7
57.3487,28.1252,48.0268,4.99835,65.2496,76.2923,75.7668,7
77.0636,57.9402,48.206,4.99739,87.1785,52.8885,-0.668696,5
64.0327,87.2754,47.1885,4.99613,33.8382,42.6353,35.9272,4
69.068,59.5928,47.1973,5.00074,76.8819,38.613,19.5963,5
73.9114,78.2119,48.4302,5.01723,76.1339,55.1926,17.0884,5
76.8786,54.686,48.4713,5.00935,49.2362,78.5266,72.6604,7
84.2572,48.2778,47.4613,5.00601,64.3907,76.8538,80.302,7
64.3607,70.9817,47.7858,4.99978,40.5648,5.50119,35.3127,4
77.9773,56.4301,47.6064,5.00879,50.8771,76.8002,73.6275,7
64.934,59.6132,48.4245,4.99576,47.6313,47.2805,50.5379,4
61.661,51.7819,47.9404,4.9871,78.5516,46.7464,28.9999,5
81.1982,48.3558,48.693,5.00314,64.9706,76.9094,80.5431,7
68.7828,82.2631,47.7375,4.98077,75.0258,54.4609,37.1814,5
84.1495,48.5256,48.1441,5.0034,55.053,76.3026,74.9004,7
69.8501,61.6276,47.5336,4.99681,72.5936,2.40622,3.68647,5
87.2991,55.776,48.0377,5.00315,62.2821,79.5312,85.1469,7
62.5857,50.8093,48.077,4.99047,78.8828,45.7723,28.8946,5
67.0939,86.1949,47.204,5.01299,73.3362,5.92108,24.8288,5
20.8927,56.5494,48.6537,5.01024,35.5619,51.7792,58.8878,1
68.2561,75.6565,47.6066,4.98513,85.378,44.5743,26.0668,5
67.3855,83.3399,47.7813,4.99631,74.4523,52.5578,37.9162,5
75.5567,76.3861,47.8855,4.97633,82.6646,56.3509,4.08551,5
61.4937,49.9874,48.4878,4.97369,54.2193,77.832,80.57,2
54.8383,51.1555,47.4648,5.00432,34.0871,38.5188,46.0711,1
60.876,74.93,48.886,4.98684,50.3422,34.9352,33.4793,5
67.7988,43.0458,48.2176,4.99177,57.9174,73.3763,77.3002,7
50.6721,45.792,47.5083,4.98433,58.5732,33.7604,41.6283,1
64.0894,51.4051,48.8818,4.99879,63.8791,72.3046,73.9886,7
64.787,51.5235,48.2117,4.99712,79.7589,44.9569,28.0813,5
47.6987,61.7005,0.807199,5.00337,55.405,72.517,74.9228,7
-1.42955,50.3045,47.9473,4.98243,35.3544,69.3555,43.9032,0
73.0434,77.4721,47.6478,5.00672,82.9799,57.5395,6.63045,5
87.5692,49.6514,47.9483,4.99961,60.4375,77.3197,80.6276,7
72.2049,82.7373,47.9098,4.98491,87.0813,56.9726,29.6638,5
65.6353,88.9314,47.4476,5.00589,72.1188,4.71401,25.3341,5
67.9721,83.9467,47.7018,5.00772,74.0732,52.2781,35.8112,5
4.02942,65.0915,47.6933,4.99802,29.8719,92.7733,93.253,0
43.0226,35.9351,47.9333,4.99303,43.8404,52.3137,60.0623,1
72.9573,78.2435,47.7578,5.01243,72.4652,54.9509,14.5746,5
62.9848,57.1054,48.6359,4.98928,5.83061,33.0753,26.4023,5
5.618,76.6985,0.864048,4.99587,76.6421,60.407,50.4533,5
31.6837,37.9519,48.1855,5.01307,52.739,27.3785,37.2926,4
74.5182,25.6974,48.0961,4.99814,58.576,75.3157,77.4443,7
78.1135,67.5279,47.901,5.00527,84.3087,3.76676,28.2412,5
66.0399,85.103,48.0706,5.01915,75.0136,53.1607,37.4932,5
64.8179,57.333,47.9863,4.99275,7.63735,36.0598,24.6008,5
63.0293,50.4871,47.941,4.99195,77.8963,43.9247,26.7533,5
31.197,39.6283,48.1203,4.99438,52.5208,28.4577,36.422,4
64.8846,47.349,48.2398,5.01874,47.4856,70.7185,74.9146,7
73.3803,8.33824,47.3849,5.00491,57.228,52.7959,27.7213,5
67.2554,82.4647,47.2342,5.01063,73.5408,52.7957,37.4912,5
83.0495,48.1409,47.4851,4.99892,55.2811,78.3548,75.0223,7
68.4016,58.7213,47.7769,5.0008,76.0274,38.9105,20.1218,5
75.5355,77.7342,47.8732,5.00984,82.3608,57.6081,2.0593,5
79.6454,40.5329,47.5478,4.99982,64.8571,81.4518,83.3455,7
75.8792,83.093,47.8364,5.0122,35.2988,52.5867,32.5303,4
65.7889,87.2364,48.5228,5.00416,73.3139,3.52179,24.4575,5
62.0525,43.452,48.1931,5.00659,47.1782,75.9122,6.68429,7
83.5165,53.3395,48.1476,4.99887,59.3114,86.3109,89.0202,7
47.9333,46.2214,48.3838,5.00224,60.1692,75.5822,76.9576,7
4.05157,3.89971,1.04687,4.98454,53.4028,77.0494,7.75515,0
70.4769,65.6615,47.8348,5.00515,39.3373,6.60779,23.9843,4
66.6487,36.4625,48.1705,4.99991,54.141,62.2775,67.8101,7
73.8236,39.9177,48.2527,5.00445,6.38729,57.1911,61.4316,7
66.2903,73.9277,48.3962,4.99616,31.7546,37.4963,41.3313,4
64.4726,72.9591,48.9585,4.98389,46.9788,41.0064,18.7746,4
66.4311,81.9208,48.3403,5.01799,39.2033,64.718,56.2835,4
54.8502,54.1115,48.3966,5.00199,43.5854,37.8588,6.6626,4
63.2722,86.4327,48.1046,4.98654,39.5135,46.9473,33.3818,4
52.7229,80.2222,48.0083,4.9957,72.245,37.6189,36.4238,5
64.318,38.6245,47.8407,5.02914,53.5845,63.7735,67.835,7
59.2305,28.5743,48.5736,4.99432,64.7209,75.1051,76.5362,7
6.68844,76.7932,0.972275,5.00226,77.5491,58.1616,52.352,5
65.2729,45.5738,47.4822,5.01161,48.1378,72.3581,76.3765,7
64.2879,50.3132,47.5009,4.97945,65.9772,53.7671,34.8126,5
5.63345,56.2563,48.9056,5.00267,70.8724,61.5923,67.6627,0
74.4476,75.2655,47.7372,4.99183,83.8584,57.1477,3.17322,5
69.9453,70.9054,48.0474,5.01733,67.079,43.2142,36.1003,5
62.7689,48.0875,47.6537,4.99305,78.2345,45.0904,29.761,5
45.1306,59.8935,47.8474,5.00242,36.193,74.8783,22.7275,0
82.5431,49.5347,47.5729,4.99193,54.4308,77.9131,73.757,7
62.7242,75.9146,48.1962,4.98439,52.093,32.2182,32.0874,5
16.1494,50.6531,48.3509,4.99644,32.72,40.0197,48.841,0
66.7207,86.8143,48.1019,4.998,31.9834,41.0699,36.0521,4
72.6774,84.4854,48.1667,5.01265,34.119,52.2524,35.3915,4
74.1026,84.3207,47.8114,4.99194,85.971,56.4157,30.8204,5
80.6784,46.6463,49.0201,5.00977,65.0833,76.6315,79.7297,7
74.3819,78.5758,48.2514,4.98475,74.9022,51.9811,14.5692,5
82.5839,47.7238,47.867,5.00801,66.1827,74.2711,78.4662,7
61.3242,46.1447,47.8301,5.0019,50.3889,84.3021,84.7575,0
75.8705,85.6404,48.1975,4.98881,34.5888,52.061,31.4167,4
54.8487,68.2233,47.7539,5.00413,76.8304,36.123,46.4888,5
66.3413,61.1223,48.1314,5.0139,72.3853,3.45415,6.22607,5
18.2125,39.7034,47.8538,4.99264,53.4875,4.20106,37.0462,1
71.1705,72.0544,48.0171,5.01331,2.51629,53.8927,39.0633,4
61.8999,48.554,48.1531,5.01014,54.0779,75.2787,78.3841,2
34.0847,50.7457,47.8103,5.00883,61.3256,73.5097,74.873,0
74.9792,8.13877,47.5329,4.99952,56.0032,53.624,29.2742,5
82.3635,47.5932,48.2769,5.02016,64.9221,75.2746,79.9775,7
63.6017,51.546,47.126,4.99715,66.1455,53.879,29.5341,5
69.7404,63.214,48.2984,4.99566,72.1773,2.91503,1.02454,5
65.7531,59.1643,47.7254,5.01413,48.065,77.8784,71.6192,0
73.5119,83.2886,47.6473,4.99201,85.3604,57.7471,30.5474,5
77.4461,39.9457,48.5355,4.97896,5.14208,58.5223,62.6724,7
7.43541,51.952,48.2624,4.99152,5.51041,85.5087,86.5457,7
70.2317,43.9345,47.6806,5.01836,58.6341,74.4683,78.6493,7
33.1026,36.1478,48.3626,4.98604,46.8282,64.131,69.5648,0
72.8558,82.785,47.5944,5.00988,86.7612,59.298,27.2501,5
63.5646,47.9294,47.4633,5.00242,79.2261,44.304,27.6618,5
69.1684,81.2019,48.5139,4.99133,53.595,47.6392,22.252,4
27.9901,46.2576,48.3004,5.00623,68.5598,65.5797,67.2812,0
68.0412,63.1183,47.3302,5.00593,73.3048,2.88612,4.33159,5
65.3384,51.1912,47.9933,4.99608,66.615,54.2862,31.9133,5
78.8641,68.6771,47.8595,4.98975,83.2438,4.59705,30.4032,5
74.4867,75.804,47.8236,4.99312,82.3101,57.7613,4.06008,5
70.5127,60.8354,47.3913,5.00696,72.4479,5.55453,2.59704,5
74.7139,78.9243,47.353,5.00325,75.3084,52.0629,16.1533,5
60.8947,49.3086,47.8597,4.98759,78.2947,45.4704,25.681,5
62.0805,5.16489,47.5345,4.98783,59.5837,84.4932,83.7219,0
73.1876,46.9483,47.5931,4.98806,4.47816,54.6587,44.2091,4
75.1577,78.2652,48.0677,4.9933,73.6161,52.9097,16.228,5
74.2757,40.7301,48.0267,4.99277,6.3154,58.6886,61.6098,7
62.164,73.6783,47.8524,5.0075,50.3961,33.891,33.7398,5
67.2507,87.9631,47.8424,5.00194,73.6142,2.39169,26.3912,5
62.6175,56.3939,48.1495,4.98684,6.43796,32.0336,27.8497,5
66.0125,62.5889,47.6533,4.99873,71.7375,3.94666,1.98092,5
72.1389,46.3485,47.6243,5.01252,5.10665,55.6642,42.0084,4
67.7845,76.9311,48.2993,4.98868,83.014,45.5553,26.8185,5
61.527,84.3984,48.196,5.01912,45.151,36.2099,2.94156,4
67.3497,8.53243,47.1826,4.99059,46.7876,58.644,25.8482,4
50.561,81.7763,48.7146,4.99721,72.8432,37.8872,38.3081,5
66.2014,78.2095,48.2264,4.9958,44.4725,45.5512,40.4864,4
64.1823,84.4788,47.5476,5.00535,38.8088,44.503,6.08735,4
72.5785,27.5201,47.7518,4.9881,56.4912,74.6974,77.7488,7
61.2957,74.6371,48.6423,5.01204,52.1217,33.0608,30.7771,5
79.7422,36.1561,48.0379,5.00908,47.3116,80.6425,5.1763,7
49.2481,61.1509,1.41846,5.01284,55.7871,71.5104,75.2889,7
59.4437,62.071,48.1384,4.99983,41.2761,41.4971,35.9391,4
65.4269,56.1505,48.4576,4.99542,46.9499,47.3237,53.5883,4
27.6288,35.3513,48.2606,5.03007,52.0296,76.8852,80.2577,0
35.5959,47.2891,47.8962,5.01683,38.6696,75.1271,77.5728,0
45.4957,61.1115,47.3594,4.98582,51.0963,75.9711,78.5284,0
72.3531,77.1688,48.2473,4.98084,75.309,57.4384,15.3877,5
71.6508,84.801,48.0819,5.01039,18.0157,53.7231,21.3313,4
49.3175,30.3867,48.1839,4.98895,56.4599,23.2416,36.5382,1
63.9572,46.8853,47.2528,4.98996,67.7681,62.5147,66.9319,7
73.1872,8.44922,48.2677,5.00887,56.8349,52.7627,27.9143,5
63.0357,76.3781,47.0904,4.98648,50.9773,31.1967,31.258,5
72.0178,83.1707,48.1133,4.99682,86.2376,56.487,26.2273,5
78.397,31.9364,47.9785,4.99781,57.3298,74.6581,78.5832,7
78.0413,68.5346,47.7081,4.99877,84.5756,3.27751,29.526,5
6.33177,76.1721,0.527724,4.99526,76.9861,59.5356,52.5615,5
84.7626,43.8426,47.7924,4.99101,47.6225,72.0647,73.0549,0
79.3637,51.8865,47.2351,5.02825,56.6579,86.5826,88.9292,7
25.6635,34.566,48.2321,5.01211,51.155,76.5469,79.0569,0
65.7118,68.9059,49.186,5.00389,64.5918,41.1593,27.8054,5
70.6829,86.4317,48.4233,4.97739,4.4006,53.0137,31.1705,4
78.7284,44.1174,47.9999,4.98803,45.4073,72.9991,67.3606,7
78.0064,44.2981,47.7461,5.02044,45.8044,73.1575,68.9477,7
54.8887,82.028,47.316,4.99376,72.2833,36.7418,38.5714,5
59.5986,29.1465,48.0185,5.01043,63.9103,75.1723,77.3115,7
81.7327,51.7757,48.0343,4.98263,57.2994,86.1046,87.7226,7
72.2118,42.5353,48.4823,4.99006,65.1068,75.7168,81.2526,7
66.7657,77.0596,48.6162,5.00891,85.02,44.8418,28.1795,5
68.2589,81.2026,47.7775,4.99299,54.3886,48.8946,23.5576,4
50.758,5.45321,47.8482,4.98475,56.4086,62.0513,63.3299,0
66.5558,82.7196,48.0514,5.00657,74.7779,52.3428,37.2583,5
65.7296,50.5958,47.4406,5.0037,67.3483,56.267,32.2139,5
78.7677,32.6588,48.5054,5.00288,57.7401,75.4774,79.3041,7
32.5302,37.0352,48.528,5.01681,46.4246,62.7457,67.5598,0
73.742,78.7383,47.6009,4.99927,75.5358,52.8752,13.0378,5
59.9053,75.6791,47.7779,4.97789,51.2444,31.9754,34.5446,5
3.20123,65.6337,48.354,5.00618,30.3405,92.9678,90.9141,0
74.2901,75.4188,47.4331,4.99026,84.0853,58.0806,1.31482,5
63.6386,43.8262,47.8133,4.99386,66.1936,61.4491,63.7762,7
64.3981,66.0623,48.4904,5.00239,38.7585,41.9728,36.894,4
63.7306,51.2549,47.6309,4.98808,65.1409,54.2051,31.2779,5
82.8372,48.306,47.8164,5.0029,66.1341,76.8879,78.0429,7
68.4491,62.7522,48.1895,5.00025,71.6449,4.61024,4.77214,5
64.8929,84.3075,47.8331,5.00606,37.9762,44.9625,3.74684,4
74.0269,76.0712,47.9619,5.01151,83.9806,56.7422,-0.711458,5
74.2168,76.9774,48.854,4.99659,74.3109,55.4305,16.1339,5
66.3741,83.6156,47.9893,5.01185,74.5606,56.8262,37.2109,5
74.6331,81.768,48.0846,4.99438,47.9145,46.892,42.139,4
62.4947,85.8869,48.383,4.99888,38.3227,46.7259,35.156,4
64.5732,51.4547,47.5655,5.00875,64.8892,53.2208,34.1459,5
46.4491,45.0949,48.3786,4.98064,62.6813,75.7789,77.5712,7
78.9563,67.738,48.2155,5.00195,82.751,4.3295,28.9001,5
77.8377,72.5676,47.5467,5.00046,44.0973,38.6374,39.1488,4
69.0721,62.7283,47.7983,5.01907,71.1946,4.26899,2.03651,5
59.1984,74.4125,47.5029,4.99267,50.6898,33.684,34.0229,5
52.2849,83.227,47.7379,5.00472,72.3912,35.8929,37.3012,5
67.3641,76.8467,48.3298,5.01649,84.0609,45.8843,27.6325,5
62.6585,42.9567,47.9748,4.98521,47.725,77.5699,7.38345,7
58.6658,28.5478,47.9134,4.99403,64.1547,74.5718,77.5272,7
57.271,69.8292,48.031,4.99683,77.8872,35.5119,44.4742,5
4.67322,37.6922,47.441,4.99428,59.0392,41.6346,49.6076,1
75.9953,57.1691,48.3012,4.98982,87.0645,51.7223,1.96007,5
66.9093,84.5955,47.1009,5.00644,75.0253,55.5305,38.7665,5
61.8233,84.4013,48.0303,5.00772,37.4978,46.9755,4.31236,4
70.1251,69.2403,47.8613,4.99653,67.1804,42.6846,36.5465,5
67.5134,85.9594,48.1623,5.01324,32.8698,40.7578,35.2054,4
5.67584,75.8013,0.769317,4.99056,76.1812,59.7842,51.0538,5
69.2588,60.8907,47.4966,4.97622,76.7119,41.5345,21.2006,5
66.4754,73.5602,48.4302,4.99379,31.032,38.0144,43.5717,4
64.372,51.8462,47.7962,5.00239,66.2577,53.4516,32.1047,5
2.63944,39.0514,48.8059,5.00082,42.4264,18.2593,2.58924,1
70.9572,70.7087,48.0218,4.99179,67.9652,42.153,35.9286,5
70.4522,44.7293,47.9268,4.99794,51.6251,65.9392,7.97688,0
58.1806,33.2528,47.1921,5.01324,54.3635,86.9971,80.7273,0
66.0359,76.9879,48.0669,5.00707,84.6522,44.3724,25.2964,5
63.4117,48.8358,48.4419,4.99707,78.6699,43.6334,27.5778,5
76.8591,56.0997,48.4066,5.01567,87.273,50.9507,2.29319,5
64.6443,66.0482,47.9221,5.00336,40.3809,37.6232,3.57142,4
66.0713,80.9192,48.0157,5.00122,25.5147,42.1161,25.0432,4
75.1728,78.8228,47.5359,5.02644,74.7774,53.8198,16.1551,5
70.4968,46.6135,1.0494,4.99599,52.5615,58.8762,3.37906,6
71.4467,26.048,48.6273,5.00209,58.415,73.7194,76.7849,7
63.3592,55.7017,47.7862,5.01256,6.85554,33.7698,26.8854,5
70.4513,86.1656,47.3413,5.00451,4.30838,53.2208,31.6478,4
41.0477,59.5039,48.6074,5.00829,38.4177,22.1572,33.9092,1
72.7568,28.26,48.4635,4.98572,57.7653,75.35,79.9119,7
84.7363,54.5398,47.0918,4.9982,75.0913,92.6911,6.63588,7
61.6166,76.4341,48.1033,4.99664,51.3245,33.5178,32.1703,5
18.1066,-0.125564,47.655,4.99837,44.3469,23.9623,35.0449,1
77.6216,33.2688,48.4961,4.99557,56.6426,77.03,76.9394,7
28.0203,38.7339,48.1408,4.99743,51.4197,3.84979,47.5432,4
66.5046,80.0504,47.8122,5.0039,25.0963,41.2082,24.3828,4
75.7372,76.939,47.6091,5.00333,82.0495,56.5847,2.1254,5
75.4299,56.1373,48.1558,4.99643,87.3264,53.2394,2.18322,5
34.969,29.309,47.1864,5.00886,41.1149,35.6658,44.3492,1
27.227,3.79671,47.729,4.99689,44.1846,32.3144,38.7656,1
5.5871,6.51473,1.23999,5.02031,53.3312,76.7353,9.53453,0
50.69,45.3347,47.9444,4.99574,5.91041,79.5264,7.6253,0
76.4725,40.6881,48.2337,5.00912,5.511,57.8846,62.1189,7
5.87904,76.27,1.18289,4.99272,77.0348,58.0749,50.5173,5
78.2691,57.6006,47.5323,5.00516,88.915,55.1087,0.275663,5
55.5213,69.938,47.9595,4.99132,76.6607,36.8223,46.2936,5
68.1697,67.8984,47.3895,5.01445,48.6008,3.78211,34.7989,4
68.0796,63.2266,48.2113,4.99824,73.2073,4.14299,2.81056,5
67.6351,69.6652,48.015,4.99987,49.6003,4.34848,34.8597,4
73.98,78.282,47.6778,4.99142,84.029,57.2649,3.36495,5
35.5056,42.0045,46.7495,4.98893,53.1904,31.1269,39.8864,1
87.138,41.3682,47.8561,4.99736,50.7861,74.7242,72.7973,7
42.9412,42.7462,47.7775,5.00371,5.45423,24.2339,23.7993,1
73.8336,77.9695,47.886,4.99909,83.9327,57.3478,3.09657,5
51.5395,81.3868,47.9227,4.98501,70.6725,37.1114,36.0928,5
65.133,50.3282,48.1459,5.0096,67.0827,52.9559,32.1449,5
8.19262,38.8593,0.307487,4.99158,52.4351,83.5881,83.5027,3
74.1395,73.1407,47.3441,4.99208,33.1032,51.4776,52.7482,4
68.3289,62.9131,49.1743,4.99328,72.0035,4.93499,4.30779,5
3.35631,36.4662,48.6197,5.00887,65.5996,64.1886,67.8859,0
67.9441,38.7815,47.7614,4.97123,53.8535,61.9332,67.6684,7
67.3679,79.8277,47.7867,4.98272,25.4813,42.4415,23.2345,4
62.2206,73.1411,47.6773,4.99952,51.0916,31.8265,33.422,5
63.2564,67.7962,47.8577,4.99714,63.7748,42.2892,28.6663,5
63.1936,45.8951,48.5143,5.0123,68.3223,61.2374,66.0055,7
63.2993,49.5618,48.5485,5.00113,64.8251,71.4145,76.591,7
74.8744,57.6784,47.6171,4.98869,86.9557,54.1267,0.813851,5
62.0837,49.3304,48.4087,5.01194,78.5167,44.4304,27.8392,5
89.1133,40.7691,48.1831,4.9964,52.1268,72.7491,75.8345,7
47.7958,48.6406,47.8064,4.97193,52.2185,78.0337,70.5768,0
65.2423,52.2542,48.6391,4.98943,65.7061,53.7854,31.4852,5
61.9502,67.8856,48.8113,5.00659,65.8956,40.9066,27.9968,5
60.918,50.904,48.2577,5.01339,53.465,66.6068,52.7876,0
77.9239,57.1606,48.0204,5.00622,88.5619,52.1857,2.59548,5
43.4312,59.4605,47.5501,4.9939,52.8822,47.6766,55.656,4
62.0756,43.7778,48.1259,4.98829,47.287,76.2045,9.2521,7
76.6444,56.2785,48.4173,4.99461,88.0221,54.2905,2.18336,5
72.9355,10.0401,47.9489,4.98713,56.5688,52.8792,30.3044,5
59.9245,5.22885,48.4876,5.01829,58.5843,71.0822,75.6224,7
83.4183,47.912,47.1747,4.99573,55.1863,80.9425,76.2808,7
66.5593,81.8757,48.6122,5.0133,38.3617,64.7985,57.8137,4
52.4824,80.0471,47.9965,5.00162,71.5819,39.272,38.5239,5
73.2576,77.9588,47.6787,5.00915,75.9058,52.3269,15.6378,5
63.0409,83.7539,48.7488,4.98183,4.50887,38.932,22.3133,4
63.3159,69.2038,48.3154,4.9936,63.7933,39.2148,29.8721,5
85.4043,55.0264,47.7633,5.00911,63.259,81.7578,84.4546,7
6.34432,53.0352,48.3943,5.0067,7.48918,86.1245,86.8656,7
86.3431,53.3036,48.2327,5.01297,53.4096,53.3386,34.4947,2
53.463,79.6119,48.4558,5.00428,72.0459,38.1781,38.9664,5
1.96574,37.1401,48.2622,4.99785,57.8809,40.8814,48.9341,1
68.5414,60.1687,48.4518,5.01389,79.4882,40.8725,19.5786,5
84.0233,49.4482,48.5288,5.00665,54.8258,76.7307,73.6813,7
45.4407,48.4761,47.631,5.00202,63.4916,74.3733,76.6063,7
45.3894,51.4066,48.1468,5.00945,47.0106,25.6359,34.8995,1
5.25981,49.5014,48.4109,5.02292,27.6155,21.4522,32.8342,1
56.6532,67.5143,48.1369,4.99532,77.7805,35.8928,46.2101,5
66.0148,84.688,47.9053,5.00747,73.4819,52.6097,36.6439,5
63.7114,84.7226,48.1333,4.99608,35.9022,47.7296,2.84166,4
61.7469,81.2838,47.2037,5.00702,47.0027,35.1313,4.40719,4
5.97457,76.9007,1.01336,5.00153,76.1735,59.2931,51.9738,5
70.8048,61.0091,47.7301,4.98649,78.2458,39.3236,22.6885,5
61.4116,41.6984,47.8914,4.999,58.3806,78.3251,80.0643,7
74.0964,39.7417,47.2943,4.99284,4.87036,58.693,61.8831,7
87.2507,54.3718,47.3722,4.97956,61.8684,80.374,82.2917,7
64.7923,85.5493,48.2071,5.0026,73.7521,54.4912,38.3684,5
66.1774,86.8003,47.7032,5.01144,73.2078,6.02602,24.669,5
76.7271,76.6274,48.3609,4.98983,83.7464,57.9308,3.1858,5
64.2579,56.9146,48.2124,5.00953,7.07922,33.8076,27.241,5
63.5315,78.6137,47.7575,5.00307,4.91128,35.6402,37.2487,4
52.516,81.1407,48.2668,5.01644,71.577,36.0016,37.3922,5
62.7188,69.2275,49.1218,4.99687,64.0052,42.055,27.3717,5
64.4355,57.8962,47.7521,5.01077,7.14014,33.7887,26.4973,5
76.3074,67.7557,47.9029,5.00635,83.0819,3.02554,28.9219,5
62.6364,67.5926,49.0367,4.99962,64.6962,42.2693,30.0571,5
68.1224,76.0078,47.2655,4.99533,84.4102,45.3589,26.9914,5
67.2811,84.3513,47.8289,5.01982,73.6941,54.9911,39.3374,5
68.3931,54.8603,1.25653,4.99845,65.4536,56.2858,17.9234,6
73.2987,24.8864,47.4493,5.01172,57.2692,76.5166,77.3165,7
7.08759,53.8624,47.8684,4.99718,6.19732,86.094,87.3073,7
73.0203,73.7822,46.8259,5.0094,29.7746,51.2909,52.1475,4
69.8964,76.0838,48.2268,5.02057,83.3604,45.1813,30.0571,5
52.2054,50.2137,47.8093,5.01586,4.61085,86.5732,88.2016,0
60.2211,57.2838,47.8659,4.99677,53.8315,8.63977,82.194,0
81.9953,39.4907,47.4811,5.00405,65.6618,79.7085,83.247,7
62.3657,55.8984,48.0385,4.98253,6.32427,34.2909,27.0932,5
21.9161,32.7799,47.9096,5.00407,51.2596,28.8911,39.4302,1
69.0671,65.893,47.7152,5.00877,40.757,4.16938,25.0117,4
66.8058,36.5396,47.2684,4.99892,52.982,64.1065,67.355,7
62.1492,69.2984,48.0837,4.98936,64.2946,42.6503,25.8873,5
71.7457,86.9926,48.0225,4.99834,17.5247,54.9881,21.4555,4
8.33558,6.94258,48.1582,4.99774,59.3044,72.2025,64.6912,0
84.1203,54.9668,48.2543,5.00422,63.521,81.7942,83.7394,7
74.3887,76.0124,48.0072,5.01392,74.881,55.0482,16.8118,5
77.4807,55.0902,47.5289,4.99168,52.0755,77.5446,72.8361,7
78.705,67.9656,47.6564,4.99718,83.5771,5.50386,28.5162,5
72.576,71.7783,47.5631,4.99997,66.9273,44.3946,34.7683,5
79.9949,51.7711,48.2517,5.00407,55.2732,75.3793,10.5763,7
76.3159,57.1367,48.1258,4.98933,87.449,52.8279,2.4804,5
64.898,49.1482,0.870469,4.98442,52.514,55.3543,37.4355,6
47.3126,55.0978,47.3402,5.00912,57.0927,70.1289,72.2185,0
57.2811,7.02656,47.3552,4.9883,58.7607,74.2033,74.6714,7
69.5474,77.3661,48.4462,4.99719,43.1417,43.5834,43.0245,4
79.2252,45.5205,48.2011,4.99826,41.4282,67.3809,67.331,7
68.5517,9.50767,47.8641,5.01145,45.5095,55.4482,26.1501,4
68.0722,76.5655,48.5341,5.00115,83.1978,44.5045,25.8941,5
62.3696,80.3774,48.1965,4.98382,36.473,38.4144,43.5733,4
72.1679,26.8632,48.1074,4.99464,56.8673,74.6477,80.3976,7
61.8566,6.13259,48.9791,5.00376,43.4328,40.2528,40.7521,4
83.6464,47.3269,47.8742,4.98319,65.1769,75.5374,77.259,7
68.9534,82.094,48.1682,4.99563,74.3651,55.1706,38.1061,5
43.5946,37.2368,48.2991,4.9965,53.6645,32.326,44.9854,1
3.22931,29.0058,47.9764,5.00613,41.8893,30.5913,38.6624,1
77.483,55.4303,48.5362,5.00287,50.2645,77.0466,73.7468,7
61.7146,74.9313,48.1657,4.99871,51.4718,33.0817,33.2491,5
-0.618645,49.0887,47.4519,4.98502,34.3162,67.5988,43.6097,0
5.75525,60.7363,47.9017,5.01575,55.5498,50.6849,41.9788,4
69.6588,47.5946,0.634061,4.99785,60.3685,55.3975,27.0349,6
7.33531,39.0073,0.870591,5.00454,51.4091,83.4888,83.4515,3
58.007,37.9249,48.1822,4.9997,5.39956,50.0752,32.4452,7
3.60093,64.9918,48.5863,4.97387,31.4061,93.6122,91.5715,0
